&CONTROL
   calculation      = 'relax'
   restart_mode     = 'from_scratch'
   tstress          = .false.
   tprnfor          = .true.
   outdir           = './out'
   prefix           = 'ge'
   pseudo_dir       = './'
/
&SYSTEM
   ibrav            = 0
   ecutwfc          = 60.0
   occupations      = 'smearing'
   degauss          = 0.01
   smearing         = 'gaussian'
   ntyp             = 1
   nat              = 16
/
&ELECTRONS
   mixing_beta      = 0.4
/
&IONS
   ion_dynamics     = 'bfgs'
/
&CELL
/
&FCP
/
&RISM
/
ATOMIC_SPECIES
Ge 72.63 Ge.upf

K_POINTS automatic
2 2 1  0 0 0

CELL_PARAMETERS angstrom
5.67485421485438 0.00000000000000 0.00000000000000
0.00000000000000 5.67485421485438 0.00000000000000
0.00000000000000 0.00000000000000 19.93099487599516

ATOMIC_POSITIONS angstrom
Ge 0.0160622697 2.8455171568 5.0145098626  
Ge 1.4305295054 4.2642230612 6.4118065340  
Ge 2.8442885088 -0.0010026179 4.9897766989  
Ge 4.2701409739 1.4241616101 6.4354704352  
Ge -0.0076735486 -0.0096958990 7.8386912803  
Ge 1.4071901249 1.4185637752 9.2597371478  
Ge 2.8498472618 2.8470648304 7.8322334287  
Ge 4.2594986729 4.2692775519 9.2496201529  
Ge 0.0167795060 2.8504320261 10.6938813745  
Ge 1.4124784770 4.2417978359 12.0790649265  
Ge 2.8253664865 0.0017161798 10.6723513641  
Ge 4.2735061382 1.4185128632 12.0967239989  
Ge -0.0091797953 -0.0136127700 13.5187261237  
Ge 1.4332059631 1.4356728208 14.9138232890  
Ge 2.8276130057 2.8318507286 13.5010299666  
Ge 4.2654913308 4.2517658595 14.9112024668  

