&CONTROL
   calculation      = 'relax'
   restart_mode     = 'from_scratch'
   tstress          = .false.
   tprnfor          = .true.
   outdir           = './out'
   prefix           = 'ge'
   pseudo_dir       = './'
   nstep            = 100
/
&SYSTEM
   ibrav            = 0
   ecutwfc          = 60.0
   occupations      = 'smearing'
   degauss          = 0.01
   smearing         = 'gaussian'
   ntyp             = 1
   nat              = 8
/
&ELECTRONS
   mixing_beta      = 0.4
/
&IONS
   ion_dynamics     = 'bfgs'
/
&CELL
/
&FCP
/
&RISM
/
ATOMIC_SPECIES
Ge 72.63 Ge.upf

K_POINTS automatic
4 4 1  0 0 0

CELL_PARAMETERS angstrom
4.08000612744638 0.00000000000000 0.00000000000000
0.00000000000000 4.08000612744638 0.00000000000000
0.00000000000000 0.00000000000000 20.09750000000000

ATOMIC_POSITIONS angstrom
Ge 0.0110452263 0.0178618406 4.9868254272  
Ge 2.0204101588 -0.0187822866 6.4326339129  
Ge 2.0201020144 2.0261413673 7.8863821655  
Ge -0.0169248850 2.0570637232 9.3412824808  
Ge 0.0139769926 0.0176442620 10.7645418226  
Ge 2.0484350634 -0.0107231930 12.2257244286  
Ge 2.0452088111 2.0568971518 13.6567363876  
Ge 0.0065677505 2.0233654070 15.1024663691  

