&CONTROL
   calculation      = 'relax'
   restart_mode     = 'from_scratch'
   tstress          = .false.
   tprnfor          = .true.
   outdir           = './out'
   prefix           = 'ge'
   pseudo_dir       = './'
/
&SYSTEM
   ibrav            = 0
   ecutwfc          = 60.0
   occupations      = 'smearing'
   degauss          = 0.01
   smearing         = 'gaussian'
   ntyp             = 1
   nat              = 64
/
&ELECTRONS
   mixing_beta      = 0.4
/
&IONS
   ions_dynamics    = 'bfgs'
/
&CELL
/
&FCP
/
&RISM
/
ATOMIC_SPECIES
Ge 72.63 Ge.upf

K_POINTS automatic
1 2 1  0 0 0

CELL_PARAMETERS angstrom
16.05091020219588 0.00000000000000 0.00000000000000
-4.01272644143850 6.95024817500024 0.00000000000000
0.00000000000000 0.00000000000000 20.64823204296020

ATOMIC_POSITIONS angstrom
Ge 2.0063641912 1.1583745874 5.8190947725  
Ge -2.0063630821 3.4751240224 5.0000000000  
Ge 0.0000009705 2.3167491098 9.0954738627  
Ge 2.0063644685 1.1583744573 8.2763790901  
Ge -2.0063622502 3.4751236321 12.3718529528  
Ge 0.0000012477 2.3167489797 11.5527581803  
Ge 2.0063653003 1.1583740670 15.6482320430  
Ge -2.0063619730 3.4751235020 14.8291372704  
Ge 0.0000009705 4.6334986749 5.8190947725  
Ge 0.0000001386 -0.0000000651 5.0000000000  
Ge -2.0063622502 5.7918731973 9.0954738627  
Ge 0.0000012477 4.6334985448 8.2763790901  
Ge 0.0000009705 -0.0000004554 12.3718529528  
Ge -2.0063619730 5.7918730672 11.5527581803  
Ge 0.0000020796 4.6334981545 15.6482320430  
Ge 0.0000012477 -0.0000005855 14.8291372704  
Ge 6.0190917417 1.1583745874 5.8190947725  
Ge 2.0063644685 3.4751240224 5.0000000000  
Ge 4.0127285210 2.3167491098 9.0954738627  
Ge 6.0190920190 1.1583744573 8.2763790901  
Ge 2.0063653003 3.4751236321 12.3718529528  
Ge 4.0127287983 2.3167489797 11.5527581803  
Ge 6.0190928509 1.1583740670 15.6482320430  
Ge 2.0063655776 3.4751235020 14.8291372704  
Ge 4.0127285210 4.6334986749 5.8190947725  
Ge 4.0127276892 -0.0000000651 5.0000000000  
Ge 2.0063653003 5.7918731973 9.0954738627  
Ge 4.0127287983 4.6334985448 8.2763790901  
Ge 4.0127285210 -0.0000004554 12.3718529528  
Ge 2.0063655776 5.7918730672 11.5527581803  
Ge 4.0127296301 4.6334981545 15.6482320430  
Ge 4.0127287983 -0.0000005855 14.8291372704  
Ge 10.0318192923 1.1583745874 5.8190947725  
Ge 6.0190920190 3.4751240224 5.0000000000  
Ge 8.0254560716 2.3167491098 9.0954738627  
Ge 10.0318195696 1.1583744573 8.2763790901  
Ge 6.0190928509 3.4751236321 12.3718529528  
Ge 8.0254563488 2.3167489797 11.5527581803  
Ge 10.0318204014 1.1583740670 15.6482320430  
Ge 6.0190931281 3.4751235020 14.8291372704  
Ge 8.0254560716 4.6334986749 5.8190947725  
Ge 8.0254552397 -0.0000000651 5.0000000000  
Ge 6.0190928509 5.7918731973 9.0954738627  
Ge 8.0254563488 4.6334985448 8.2763790901  
Ge 8.0254560716 -0.0000004554 12.3718529528  
Ge 6.0190931281 5.7918730672 11.5527581803  
Ge 8.0254571807 4.6334981545 15.6482320430  
Ge 8.0254563488 -0.0000005855 14.8291372704  
Ge 14.0445468428 1.1583745874 5.8190947725  
Ge 10.0318195696 3.4751240224 5.0000000000  
Ge 12.0381836221 2.3167491098 9.0954738627  
Ge 14.0445471201 1.1583744573 8.2763790901  
Ge 10.0318204014 3.4751236321 12.3718529528  
Ge 12.0381838994 2.3167489797 11.5527581803  
Ge 14.0445479519 1.1583740670 15.6482320430  
Ge 10.0318206787 3.4751235020 14.8291372704  
Ge 12.0381836221 4.6334986749 5.8190947725  
Ge 12.0381827903 -0.0000000651 5.0000000000  
Ge 10.0318204014 5.7918731973 9.0954738627  
Ge 12.0381838994 4.6334985448 8.2763790901  
Ge 12.0381836221 -0.0000004554 12.3718529528  
Ge 10.0318206787 5.7918730672 11.5527581803  
Ge 12.0381847312 4.6334981545 15.6482320430  
Ge 12.0381838994 -0.0000005855 14.8291372704  

