&CONTROL
   calculation      = 'relax'
   restart_mode     = 'from_scratch'
   nstep            = 100
   tstress          = .false.
   tprnfor          = .true.
   outdir           = './out'
   prefix           = 'ge'
   pseudo_dir       = './'
/
&SYSTEM
   ibrav            = 0
   ecutwfc          = 60.0
   occupations      = 'smearing'
   degauss          = 0.01
   smearing         = 'gaussian'
   ntyp             = 1
   nat              = 64
/
&ELECTRONS
   mixing_beta      = 0.4
/
&IONS
   ion_dynamics     = 'bfgs'
/
&CELL
/
&FCP
/
&RISM
/
ATOMIC_SPECIES
Ge 72.63 Ge.upf

K_POINTS automatic
4 4 1  0 0 0

CELL_PARAMETERS angstrom
16.05091159027436 0.00000000000000 0.00000000000000
8.02545579513718 13.90049719107568 0.00000000000000
0.00000000000000 0.00000000000000 14.09547326069757

ATOMIC_POSITIONS angstrom
Ge 10.0447344419 5.7973091104 5.8117868000  
Ge 1.9908923596 1.1521461482 5.0114760334  
Ge 8.0212908554 2.3324697631 5.8344894237  
Ge 4.0098166438 4.6376468935 5.0109273342  
Ge 6.0377720866 5.7904957128 5.8123516704  
Ge 6.0169927299 1.1485561992 5.0026752590  
Ge 4.0200932958 2.3300283121 5.8254775388  
Ge 8.0215687139 4.6394889668 4.9947676717  
Ge 6.0209995846 3.4748769483 9.1112153481  
Ge 10.0297213961 5.7946662733 8.2574808388  
Ge 3.9965934449 -0.0026466249 9.1078751850  
Ge 8.0445992244 2.3058523323 8.2575672897  
Ge 2.0193392719 3.4858333989 9.0994910244  
Ge 6.0128854538 5.7998425481 8.2903806805  
Ge 0.0179251811 0.0180142768 9.0770732547  
Ge 3.9988963601 2.3314292572 8.2641542052  
Ge 14.0347341154 12.7367924641 5.8249023841  
Ge 6.0086809008 8.1030294891 5.0036697487  
Ge 12.0565190566 9.2596856649 5.8163524208  
Ge 8.0397718077 11.5716295122 5.0029065224  
Ge 10.0168055498 12.7607954999 5.8357887167  
Ge 10.0456288996 8.1106737362 4.9882725694  
Ge 8.0365127215 9.2616041689 5.8081364480  
Ge 12.0213023148 11.5791846127 4.9956960264  
Ge 10.0191699806 10.4426278895 9.1134582442  
Ge 14.0430600316 12.7233664397 8.2707659076  
Ge 8.0115463228 6.9484446926 9.1096449886  
Ge 12.0340560420 9.2616198185 8.2945805980  
Ge 6.0088779415 10.4434351620 9.1096838616  
Ge 10.0493463395 12.7578395396 8.2783525904  
Ge 4.0287983508 6.9548112502 9.1044482028  
Ge 8.0132044137 9.2858766950 8.2798488786  
Ge 18.0618503441 5.7921341965 5.8340264010  
Ge 10.0227960792 1.1774064478 5.0001498384  
Ge 16.0431383974 2.3060600219 5.8010535912  
Ge 12.0405031997 4.6519648061 4.9838329777  
Ge 14.0602911506 5.7721382387 5.8327337909  
Ge 14.0405043847 1.1610030811 5.0159931717  
Ge 12.0193404964 2.3335643310 5.8374001228  
Ge 16.0413086291 4.6211487188 5.0172781805  
Ge 14.0445775673 3.4710893625 9.1015948254  
Ge 18.0762563245 5.7853715263 8.2829738133  
Ge 12.0428180609 0.0170489910 9.1091848068  
Ge 16.0601789402 2.3279278141 8.2962837579  
Ge 10.0134434763 3.4800481950 9.0991731851  
Ge 14.0450362669 5.7861752813 8.2831959732  
Ge 8.0183025082 -0.0161876837 9.0976055087  
Ge 12.0350863021 2.2985746581 8.2715304035  
Ge 22.0741230324 12.7566047746 5.8338523604  
Ge 14.0521041213 8.1143323344 5.0178460640  
Ge 20.0835150447 9.2580226596 5.8277155019  
Ge 16.0321061565 11.5876897718 5.0189361500  
Ge 18.0673985749 12.7328428091 5.8006658127  
Ge 18.0500819743 8.0961140401 5.0149888583  
Ge 16.0601213336 9.2474895283 5.8138857924  
Ge 20.0581741005 11.5926308991 5.0090810891  
Ge 18.0502246731 10.4194078533 9.0969074655  
Ge 22.0662505913 12.7442034864 8.2756256297  
Ge 16.0636442350 6.9544326262 9.0837129422  
Ge 20.0473729222 9.2672309904 8.2594886734  
Ge 14.0637974102 10.4281632805 9.1051725441  
Ge 18.0427657966 12.7592939337 8.2847433103  
Ge 12.0520704058 6.9655414104 9.0819717260  
Ge 16.0473113966 9.2866335473 8.2883314712  

