&CONTROL
   calculation      = 'relax'
   restart_mode     = 'from_scratch'
   tstress          = .false.
   tprnfor          = .true.
   outdir           = './out'
   prefix           = 'ge'
   pseudo_dir       = './'
/
&SYSTEM
   ibrav            = 0
   ecutwfc          = 60.0
   occupations      = 'smearing'
   degauss          = 0.01
   smearing         = 'gaussian'
   ntyp             = 1
   nat              = 64
/
&ELECTRONS
   mixing_beta      = 0.4
/
&IONS
   ion_dynamics     = 'bfgs'
/
&CELL
/
&FCP
/
&RISM
/
ATOMIC_SPECIES
Ge 72.63 Ge.upf

K_POINTS gamma

CELL_PARAMETERS angstrom
16.05091159027436 0.00000000000000 0.00000000000000
-8.02545579513718 13.90049719107568 0.00000000000000
0.00000000000000 0.00000000000000 14.09547326069757

ATOMIC_POSITIONS angstrom
Ge 4.0084149613 4.6178933649 5.8266895204  
Ge 0.0149099903 2.3074836823 5.0187171959  
Ge 6.0365770903 1.1686376413 5.8360949905  
Ge -1.9948090358 5.7787200539 5.0156206463  
Ge 2.0196373693 1.1584336193 5.8265508418  
Ge 2.0182717180 5.7981146586 5.0087483409  
Ge 0.0010309623 4.6281024174 5.8206330316  
Ge 4.0241642586 2.3018880460 5.0065671905  
Ge 3.9977348679 -0.0008639730 9.0798727095  
Ge 3.9972579592 4.6360156204 8.2630919873  
Ge 2.0133718714 3.4730423202 9.1080163434  
Ge 6.0042718018 1.1714625115 8.2582299695  
Ge 6.0019311226 3.4749596939 9.0961525005  
Ge 2.0005560136 1.1587935658 8.2836601924  
Ge 8.0190605051 0.0012225527 9.0957977280  
Ge 0.0125822306 4.6294261944 8.2870686044  
Ge -0.0116538148 11.5893119872 5.8160810470  
Ge -4.0326099436 9.2505029846 5.0017258197  
Ge 2.0133285033 8.1024270132 5.8002973038  
Ge -6.0199805609 12.7513447248 5.0011271422  
Ge -2.0024020166 8.0980089884 5.8271211932  
Ge -2.0045973455 12.7300167344 4.9969705815  
Ge -3.9930786727 11.5722298327 5.8009531763  
Ge -0.0180997466 9.2793605329 4.9880901426  
Ge -0.0175553761 6.9488100729 9.0796956098  
Ge -0.0075529317 11.5698846430 8.2747799763  
Ge -2.0119543406 10.4421072520 9.0977539919  
Ge 1.9979527322 8.1205007022 8.2804484059  
Ge 2.0201311420 10.4385646677 9.0774214461  
Ge -2.0110614128 8.1185166501 8.2600622913  
Ge 4.0014156363 6.9418337028 9.0774243906  
Ge -3.9949270188 11.5765476873 8.2655867688  
Ge 12.0471914349 4.6153151355 5.8076664821  
Ge 8.0104724327 2.3361162678 4.9813808543  
Ge 14.0559662339 1.1559399841 5.8368419090  
Ge 6.0046941717 5.7910539945 4.9864084646  
Ge 10.0191407598 1.1694638804 5.8223085280  
Ge 10.0213678830 5.7936768021 4.9817092959  
Ge 8.0200191966 4.6507854332 5.8332376850  
Ge 12.0522802066 2.3021647209 4.9818450960  
Ge 12.0580216859 -0.0035494734 9.1069124071  
Ge 12.0335175324 4.6463572693 8.2667309327  
Ge 10.0206020287 3.4875172079 9.0779004111  
Ge 14.0601490305 1.1391643917 8.2593432917  
Ge -2.0111885835 3.4718531777 9.0769814792  
Ge 10.0427388084 1.1715422888 8.2895532711  
Ge 0.0161363582 0.0117113141 9.1121702563  
Ge 8.0352373679 4.6360580204 8.2853379758  
Ge 8.0372492272 11.5774154917 5.8293489873  
Ge 4.0021120593 9.2845357039 5.0087114214  
Ge 10.0303544720 8.1111676737 5.8355776675  
Ge 2.0190269813 12.7324489417 5.0061788046  
Ge 5.9993985282 8.0962953335 5.8191540486  
Ge 6.0157040239 12.7472060778 5.0031557575  
Ge 3.9982420115 11.5777649802 5.8187746433  
Ge 8.0423929784 9.2778203712 5.0032117634  
Ge 8.0297801380 6.9529778921 9.0870679557  
Ge 8.0353706176 11.5852506089 8.2862683632  
Ge 6.0149058450 10.4203170379 9.1119594455  
Ge 10.0413387606 8.1281617682 8.2609408805  
Ge -6.0198307842 10.4409360355 9.1022498663  
Ge 6.0211582115 8.0989890802 8.2898934403  
Ge -4.0318048031 6.9622251340 9.0765917642  
Ge 4.0274140770 11.5756374512 8.2861916791  

