&CONTROL
   calculation      = 'relax'
   restart_mode     = 'from_scratch'
   tstress          = .false.
   tprnfor          = .true.
   outdir           = './out'
   prefix           = 'ge'
   pseudo_dir       = './'
/
&SYSTEM
   ibrav            = 0
   ecutwfc          = 60.0
   occupations      = 'smearing'
   degauss          = 0.01
   smearing         = 'gaussian'
   ntyp             = 1
   nat              = 128
/
&ELECTRONS
   mixing_beta      = 0.4
/
&IONS
   ion_dynamics     = 'bfgs'
/
&CELL
/
&FCP
/
&RISM
/
ATOMIC_SPECIES
Ge 72.63 Ge.upf

K_POINTS automatic
4 4 1  0 0 0

CELL_PARAMETERS angstrom
16.05091159027436 0.00000000000000 0.00000000000000
-8.02545579513718 13.90049719107568 0.00000000000000
0.00000000000000 0.00000000000000 20.64823047781368

ATOMIC_POSITIONS angstrom
Ge 4.0318165857 4.6409578747 5.8154605160  
Ge -0.0105482145 2.3100378605 5.0157824374  
Ge 6.0342774322 1.1401900333 5.8047835352  
Ge -1.9995436409 5.7795382895 4.9908729798  
Ge 2.0173627768 1.1455495355 5.8318972421  
Ge 2.0057319813 5.8024883034 5.0123716420  
Ge -0.0011651711 4.6451835130 5.8388562964  
Ge 3.9962627450 2.3312958985 5.0023000013  
Ge 4.0165096170 -0.0034061003 9.0983976097  
Ge 4.0059611507 4.6258848165 8.2778684771  
Ge 2.0134354157 3.4928205153 9.0757498684  
Ge 6.0268155044 1.1717386614 8.2840763049  
Ge -1.9989856002 3.4772099555 9.0770810902  
Ge 2.0139483282 1.1775534049 8.2731872131  
Ge -0.0110338564 0.0144367074 9.1129573651  
Ge 0.0154975519 4.6369377892 8.2879605421  
Ge -0.0089695885 2.3354637921 12.3905926208  
Ge 4.0137904238 -0.0161867803 11.5499994929  
Ge -2.0128610601 5.7832220390 12.3856329371  
Ge 2.0092268421 3.4917012842 11.5638682897  
Ge 2.0050866740 5.7733332962 12.3544077362  
Ge -2.0170498323 3.4842224790 11.5537080695  
Ge 4.0139362590 2.3226192981 12.3862067465  
Ge -0.0114575903 0.0029948859 11.5626949466  
Ge 4.0191741776 4.6207161371 15.6407721734  
Ge -0.0134114256 2.3193994722 14.8267798875  
Ge 6.0223218786 1.1506509542 15.6315324908  
Ge -2.0041972166 5.7970263152 14.8204531804  
Ge 2.0204912706 1.1412585855 15.6359694819  
Ge 2.0048301055 5.7868312403 14.8277046914  
Ge 0.0088633964 4.6289093740 15.6617333345  
Ge 4.0205764201 2.3253621868 14.8203159826  
Ge -0.0174185156 11.5644924671 5.8026976957  
Ge -4.0125728966 9.2505993962 5.0020952804  
Ge 1.9972629415 8.0945483144 5.8380385767  
Ge -6.0171874822 12.7592524803 4.9823799821  
Ge -2.0263070371 8.1225825703 5.8373214437  
Ge -2.0179836149 12.7327651686 4.9990537998  
Ge -4.0208665287 11.5977960172 5.7992495647  
Ge 0.0192799140 9.2812165130 5.0163258424  
Ge 0.0198290983 6.9563203365 9.1066543833  
Ge -0.0055524758 11.6018320775 8.2806514155  
Ge -2.0091529440 10.4436404865 9.1104997434  
Ge 2.0247670214 8.1043360482 8.2911889262  
Ge -6.0075932593 10.4337352168 9.1045594334  
Ge -2.0030931068 8.1169342480 8.2948199376  
Ge -4.0272168051 6.9605789661 9.1029582159  
Ge -3.9971678178 11.5979716384 8.2950518289  
Ge -3.9943676986 9.2732201918 12.3700873347  
Ge -0.0199475807 6.9412022937 11.5493256894  
Ge -6.0012926649 12.7555929080 12.3601501982  
Ge -2.0144863323 10.4287304097 11.5481652159  
Ge -1.9916157627 12.7272570675 12.3760436937  
Ge -6.0120258688 10.4148181932 11.5510457980  
Ge -0.0183571360 9.2496644507 12.3764323997  
Ge -4.0230955428 6.9522046940 11.5403539150  
Ge -0.0083231556 11.5856181011 15.6437843993  
Ge -4.0090766761 9.2787627523 14.8422487571  
Ge 2.0066204422 8.1140996400 15.6669335070  
Ge -6.0278290520 12.7374612365 14.8420258027  
Ge -2.0218605626 8.1253487304 15.6514125224  
Ge -2.0099195941 12.7537588740 14.8327261693  
Ge -4.0257624521 11.6034385700 15.6361381671  
Ge -0.0134809519 9.2662505851 14.8305002258  
Ge 12.0467288211 4.6235622060 5.7999583748  
Ge 8.0309140799 2.3186377509 4.9994249760  
Ge 14.0485235408 1.1485842063 5.8215870918  
Ge 6.0334993108 5.8029162974 5.0106610042  
Ge 10.0288407837 1.1779274050 5.8050785882  
Ge 10.0380406303 5.7980534066 5.0019975338  
Ge 8.0319489320 4.6209639085 5.8205314323  
Ge 12.0269936594 2.3132283070 4.9950246992  
Ge 12.0573151418 0.0128496309 9.1036624450  
Ge 12.0518242319 4.6434703505 8.2947150195  
Ge 10.0185090970 3.4877138474 9.1080565851  
Ge 14.0570135929 1.1582392979 8.2753874161  
Ge 6.0053859091 3.4851650386 9.1030657113  
Ge 10.0266761949 1.1385127191 8.2717976611  
Ge 8.0062163405 0.0018970591 9.1054852536  
Ge 8.0230320462 4.6492224871 8.2591290819  
Ge 8.0120327212 2.3120379985 12.3905250158  
Ge 12.0424364052 -0.0150591419 11.5350567542  
Ge 6.0139816632 5.7913892689 12.3520998051  
Ge 10.0204722038 3.4676167770 11.5563716969  
Ge 10.0129062492 5.7917581136 12.3811472988  
Ge 6.0178016570 3.4902356109 11.5664173991  
Ge 12.0537232484 2.3204655798 12.3903399322  
Ge 8.0084529635 0.0173459422 11.5516423390  
Ge 12.0332932357 4.6525380353 15.6608590505  
Ge 8.0185152795 2.3179479653 14.8174354698  
Ge 14.0353817977 1.1528982372 15.6311757629  
Ge 6.0256385106 5.8060474821 14.8204010820  
Ge 10.0419206257 1.1505144385 15.6565255282  
Ge 10.0229089007 5.7907698924 14.8265341183  
Ge 8.0339505704 4.6297884204 15.6303518389  
Ge 12.0558382843 2.3202314945 14.8415890782  
Ge 8.0381299948 11.5744835986 5.8254249755  
Ge 4.0189013394 9.2714297193 4.9854026963  
Ge 10.0425617870 8.1278156896 5.8276928986  
Ge 2.0227498586 12.7340036603 5.0133832348  
Ge 6.0138756766 8.0955283180 5.8346816164  
Ge 6.0043318610 12.7485148505 4.9973426234  
Ge 3.9951499567 11.5891651564 5.8136535180  
Ge 8.0111533582 9.2567697295 5.0102022992  
Ge 8.0449272233 6.9665870102 9.0870554996  
Ge 8.0087051671 11.6004116249 8.2949190730  
Ge 6.0292945654 10.4197427428 9.0963075520  
Ge 10.0390380821 8.1265157073 8.2944226926  
Ge 2.0150599626 10.4090623588 9.1148016916  
Ge 6.0181288603 8.1040059180 8.2813398838  
Ge 4.0251554686 6.9309319313 9.0846487658  
Ge 4.0267319793 11.5951471414 8.2845744884  
Ge 4.0242423871 9.2511106715 12.3645722451  
Ge 8.0361622415 6.9492156467 11.5708735649  
Ge 2.0238968019 12.7237291001 12.3860418055  
Ge 6.0231985251 10.4295030265 11.5686971826  
Ge 6.0326846974 12.7602395056 12.3838256913  
Ge 1.9974693669 10.4061411724 11.5443695876  
Ge 8.0118674582 9.2812991977 12.3805438305  
Ge 4.0134494997 6.9541040742 11.5410414890  
Ge 8.0100573253 11.5715109044 15.6450923019  
Ge 4.0175896355 9.2689795581 14.8333013060  
Ge 10.0475224241 8.1060390055 15.6470346984  
Ge 1.9957064731 12.7285740494 14.8411181921  
Ge 6.0044117585 8.0912841859 15.6310848938  
Ge 6.0072219517 12.7292980441 14.8322916676  
Ge 4.0062761560 11.5734939911 15.6632677996  
Ge 8.0376723727 9.2846756816 14.8296348885  

