&CONTROL
   calculation      = 'relax'
   restart_mode     = 'from_scratch'
   tstress          = .false.
   tprnfor          = .true.
   outdir           = './out'
   prefix           = 'ge'
   pseudo_dir       = './'
   nstep            = 100
/
&SYSTEM
   ibrav            = 0
   ecutwfc          = 60.0
   occupations      = 'smearing'
   degauss          = 0.01
   smearing         = 'gaussian'
   ntyp             = 1
   nat              = 96
/
&ELECTRONS
   mixing_beta      = 0.4
/
&IONS
   ion_dynamics     = 'bfgs'
/
&CELL
/
&FCP
/
&RISM
/
ATOMIC_SPECIES
Ge 72.63 Ge.upf

K_POINTS gamma 

CELL_PARAMETERS angstrom
16.32002450978552 0.00000000000000 0.00000000000000
0.00000000000000 11.54000000000000 0.00000000000000
0.00000000000000 0.00000000000000 22.24001838233914

ATOMIC_POSITIONS angstrom
Ge 0.0028973915 -0.0150580560 4.9838307961  
Ge -0.0081947147 4.3294520037 7.0414275759  
Ge 6.1239038948 2.8928175400 7.0415479859  
Ge 2.0440200631 1.4440400257 4.9885402865  
Ge 2.0556745703 2.8864797834 7.0434427624  
Ge 6.1149060873 1.4595026303 17.2468137094  
Ge 4.0997661566 -0.0199976249 5.0128162868  
Ge 4.0678600557 4.3115257179 7.0508597175  
Ge 4.0787585471 -0.0033103509 9.0605793693  
Ge 4.0830084907 4.3086973765 11.1034734446  
Ge 2.0332623939 2.9001467980 11.1098904869  
Ge 6.1273675193 1.4247256250 9.0973547802  
Ge 6.1319027635 2.8892479473 11.1326257235  
Ge 2.0275298135 1.4303706901 9.0816912586  
Ge -0.0161952333 -0.0162043927 9.0795002491  
Ge 0.0101598415 4.3111942532 11.1135487909  
Ge 0.0162432694 -0.0158166662 13.1705437983  
Ge 8.1554032612 4.3347747630 15.2094219255  
Ge 6.1143635951 2.8819917053 15.2167221629  
Ge 2.0342967315 1.4508703587 13.1446852542  
Ge 2.0211259032 2.8787687604 15.1921170481  
Ge 6.1381104969 1.4389971624 13.1666857622  
Ge 4.0774322249 0.0133323889 13.1541800700  
Ge 4.0705510904 4.3267798950 15.1817852095  
Ge 0.0156965924 5.7886275330 5.0080695136  
Ge -0.0140022854 10.0914566733 7.0207311163  
Ge 6.1068094831 8.6374941141 7.0271639433  
Ge 2.0373145163 7.2281157568 5.0113040126  
Ge 2.0566626356 8.6439645573 7.0210629088  
Ge 6.1375554225 7.2128351527 17.2220077632  
Ge 4.0914721071 5.7709898892 5.0093712942  
Ge 4.0678373367 10.1159822941 7.0348711618  
Ge 4.0618698418 5.7770514422 9.0770660327  
Ge 4.0831584360 10.0827559217 11.1230383470  
Ge 2.0428774888 8.6498790959 11.1334587124  
Ge 6.1104773929 7.2026673710 9.0780094029  
Ge 6.1368174393 8.6693695001 11.1343469901  
Ge 2.0566310592 7.1976226640 9.0926315411  
Ge -0.0117128114 5.7532363542 9.0791463440  
Ge -0.0011514630 10.0979020848 11.1277794364  
Ge 0.0166506736 5.7556593009 13.1563619010  
Ge 8.1659428557 10.1139425126 15.2134213424  
Ge 6.1122627502 8.6652107409 15.2090171847  
Ge 2.0397579609 7.2278056826 13.1458208308  
Ge 2.0346519547 8.6657830624 15.2058235300  
Ge 6.1399878246 7.2237390332 13.1506649384  
Ge 4.0685390502 5.7805975744 13.1779899793  
Ge 4.0822502814 10.0984164779 15.2188001699  
Ge 8.1527918045 -0.0175052106 5.0030574292  
Ge 8.1738682370 4.3201512100 7.0450516027  
Ge 14.2662518526 2.8709636265 7.0280224494  
Ge 10.1933402171 1.4320933035 4.9953837764  
Ge 10.1973510969 2.9046918117 7.0423270564  
Ge 14.2951372328 1.4505714060 17.2552099217  
Ge 12.2326240379 -0.0097298871 4.9893647229  
Ge 12.2314667278 4.3404343626 7.0282937269  
Ge 12.2435683889 0.0004765367 9.0741627432  
Ge 12.2226687730 4.3301660724 11.1207363626  
Ge 10.2038572605 2.9017503223 11.1205755074  
Ge 14.2884137103 1.4336762367 9.0719518825  
Ge 14.2998956041 2.8738072456 11.1278880687  
Ge 10.1929011089 1.4535415562 9.0945836817  
Ge 8.1668042752 0.0064914319 9.0633348345  
Ge 8.1453250441 4.3350314790 11.1373573829  
Ge 8.1551941846 -0.0063818720 13.1560193880  
Ge 0.0133915780 4.3094955898 15.2136442424  
Ge 14.2651909730 2.8801595242 15.1862977637  
Ge 10.1863128596 1.4287372650 13.1659494748  
Ge 10.1966694834 2.9017596773 15.2164642590  
Ge 14.2981531520 1.4561859790 13.1556376730  
Ge 12.2238956306 -0.0183882236 13.1752612412  
Ge 12.2358965226 4.3421628389 15.2179507438  
Ge 8.1459255752 5.7714329352 5.0065087804  
Ge 8.1424739415 10.1095579468 7.0422244142  
Ge 14.2836253498 8.6677378492 7.0305044687  
Ge 10.2008684333 7.2175231229 4.9915938560  
Ge 10.1834356213 8.6407226303 7.0211909465  
Ge 14.2808890015 7.2054275928 17.2467375956  
Ge 12.2386438225 5.7524145022 4.9973988808  
Ge 12.2477502869 10.1091258063 7.0431806840  
Ge 12.2527771755 5.7605581035 9.0849322502  
Ge 12.2301231434 10.0918909203 11.1214264340  
Ge 10.2019448377 8.6635829798 11.1098366827  
Ge 14.2803903283 7.2255061532 9.0900234144  
Ge 14.2617957968 8.6352325786 11.1247757483  
Ge 10.2042720580 7.2005948163 9.0682216753  
Ge 8.1593111724 5.7730130085 9.0979677743  
Ge 8.1523028657 10.1089826904 11.1122763793  
Ge 8.1406973789 5.7819196789 13.1461569802  
Ge 0.0128476741 10.0801433957 15.1846469853  
Ge 14.2720080524 8.6433973296 15.1919593896  
Ge 10.1997181536 7.2089643114 13.1601108862  
Ge 10.1854956823 8.6725293336 15.2115905981  
Ge 14.2620942587 7.2257396898 13.1508402245  
Ge 12.2514744357 5.7738388435 13.1728263096  
Ge 12.2446759586 10.0795039978 15.2030576038  

