&CONTROL
   calculation      = 'scf'
   restart_mode     = 'from_scratch'
   tprnfor          = .true.
   outdir           = './out'
   prefix           = 'scf_efield'
   disk_io          = 'none'
   pseudo_dir       = './'
/
&SYSTEM
   ibrav            = 0
   nat              = 162
   ntyp             = 2
   ecutwfc          = 60.0
/
&ELECTRONS
   conv_thr         = 1e-08
   mixing_beta      = 0.7
   diagonalization  = 'david'
/

K_POINTS automatic
3 2 2  0 0 0

