&CONTROL
   calculation      = 'relax'
   restart_mode     = 'from_scratch'
   tstress          = .false.
   tprnfor          = .true.
   outdir           = './out'
   prefix           = 'ge'
   pseudo_dir       = './'
/
&SYSTEM
   ibrav            = 0
   ecutwfc          = 60.0
   occupations      = 'smearing'
   degauss          = 0.01
   smearing         = 'gaussian'
   ntyp             = 1
   nat              = 16
/
&ELECTRONS
   mixing_beta      = 0.4
/
&IONS
   ions_dynamics    = 'bfgs'
/
&CELL
/
&FCP
/
&RISM
/
ATOMIC_SPECIES
Ge 72.63 Ge.upf

K_POINTS automatic
2 4 1  0 0 0

CELL_PARAMETERS angstrom
8.02545510109794 0.00000000000000 0.00000000000000
0.00000000000000 4.01272831000000 0.00000000000000
0.00000000000000 0.00000000000000 19.93099471410881

ATOMIC_POSITIONS angstrom
Ge 2.0063641912 3.0095458538 6.4187135306  
Ge 0.0000001386 3.0095461063 5.0000000000  
Ge 0.0000009705 1.0031811937 9.2561405918  
Ge 2.0063644685 1.0031814463 7.8374270612  
Ge 2.0063653003 3.0095448437 12.0935676529  
Ge 0.0000012477 3.0095450963 10.6748541223  
Ge 0.0000020796 1.0031801837 14.9309947141  
Ge 2.0063655776 1.0031804363 13.5122811835  
Ge 6.0190917417 3.0095458538 6.4187135306  
Ge 4.0127276892 3.0095461063 5.0000000000  
Ge 4.0127285210 1.0031811937 9.2561405918  
Ge 6.0190920190 1.0031814463 7.8374270612  
Ge 6.0190928509 3.0095448437 12.0935676529  
Ge 4.0127287983 3.0095450963 10.6748541223  
Ge 4.0127296301 1.0031801837 14.9309947141  
Ge 6.0190931281 1.0031804363 13.5122811835  

