&CONTROL
   calculation      = 'relax'
   restart_mode     = 'from_scratch'
   tstress          = .false.
   tprnfor          = .true.
   outdir           = './out'
   prefix           = 'ge'
   pseudo_dir       = './'
/
&SYSTEM
   ibrav            = 0
   ecutwfc          = 60.0
   occupations      = 'smearing'
   degauss          = 0.01
   smearing         = 'gaussian'
   ntyp             = 1
   nat              = 32
/
&ELECTRONS
   mixing_beta      = 0.4
/
&IONS
   ion_dynamics     = 'bfgs'
/
&CELL
/
&FCP
/
&RISM
/
ATOMIC_SPECIES
Ge 72.63 Ge.upf

K_POINTS automatic
1 2 1  0 0 0

CELL_PARAMETERS angstrom
16.05091159027436 0.00000000000000 0.00000000000000
0.00000000000000 5.67485421485438 0.00000000000000
0.00000000000000 0.00000000000000 18.02545579513718

ATOMIC_POSITIONS angstrom
Ge 0.0160403255 2.8216844858 5.0164323726  
Ge 0.0192254807 1.4041588887 7.0188767104  
Ge 6.0248947824 -0.0199520731 7.0166115623  
Ge 2.0189120844 4.2368920812 4.9869908478  
Ge 2.0074674377 -0.0069132508 6.9972568810  
Ge 6.0246876521 4.2663002970 4.9872107283  
Ge 4.0240779109 2.8201233010 13.0169427167  
Ge 4.0041161979 1.4051138274 7.0018985164  
Ge 4.0194561114 2.8494975634 9.0131925715  
Ge 4.0259913789 1.4219333414 11.0329366817  
Ge 2.0170428527 0.0023201814 11.0087227751  
Ge 6.0069111957 4.2443092030 9.0024089735  
Ge 6.0152007527 0.0170851174 11.0175339911  
Ge 2.0062145693 4.2373915221 9.0274086830  
Ge 0.0004436928 2.8568681426 9.0233230137  
Ge -0.0071124369 1.4365218331 11.0068582956  
Ge 8.0436592087 2.8511578269 4.9823759791  
Ge 8.0245421359 1.4304873089 7.0045133048  
Ge 14.0484207925 -0.0182177546 7.0077818923  
Ge 10.0418919432 4.2710277389 4.9819226604  
Ge 10.0321113571 -0.0106521277 7.0208690778  
Ge 14.0531724594 4.2506740203 4.9873663590  
Ge 12.0339570160 2.8302732702 13.0269956969  
Ge 12.0390648369 1.4212062913 7.0128424815  
Ge 12.0363381774 2.8490651283 9.0106768384  
Ge 12.0230181257 1.4355561283 11.0017946214  
Ge 10.0215259788 -0.0060207471 11.0340389054  
Ge 14.0471437237 4.2683107639 8.9946675703  
Ge 14.0384634834 0.0186945752 11.0305170862  
Ge 10.0166189741 4.2582463434 9.0196602689  
Ge 8.0358864366 2.8279836159 8.9994422912  
Ge 8.0348665615 1.4066643761 11.0079128483  

