! Header for PW + Phonopy

&CONTROL
    calculation   = 'scf'             ! Type of calculation: Variable-Cell
    restart_mode  = 'from_scratch'    ! Start a new calculation
    prefix        = 'Ge_scf'          ! Prefix for output files (choose a descriptive name)
    pseudo_dir    = './'              ! Directory containing pseudopotential files (MODIFY AS NEEDED)
    outdir        = './Ge_out/'       ! Directory for output/temporary files (MUST EXIST)
    verbosity     = 'low'             ! Level of output detail ('low', 'medium', 'high')
    tprnfor       = .true.            ! Print forces
    tstress       = .true.            ! Print stress tensor
/

&SYSTEM
    ibrav         = 0                 ! 
    nat           = 64                ! Number of atoms in the primitive unit cell
    ntyp          = 1                 ! Number of types of atoms
    ecutwfc       = 60.0              ! Kinetic energy cutoff for wavefunctions (in Ry)
    occupations   = 'smearing'        ! Use smearing for occupations (good for convergence, essential for metals)
    smearing      = 'gaussian'        ! Type of smearing
    degauss       = 0.01              ! Smearing width (in Ry) - small value for semiconductors
/

&ELECTRONS
    mixing_mode   = 'plain'           ! Charge density mixing scheme
    mixing_beta   = 0.5               ! Mixing factor for density mixing
    conv_thr      = 1.0e-8            ! Convergence threshold for SCF total energy (in Ry/cell)
    diagonalization = 'david'         ! Algorithm for Hamiltonian diagonalization
/

&IONS
/

&CELL
/
K_POINTS automatic
 2 2 2  1 1 1
!    ibrav = 0, nat = 64, ntyp = 1
CELL_PARAMETERS bohr
   21.7696450988124326    0.0000000000000000    0.0000000000000000
    0.0000000000000000   21.7696450988124326    0.0000000000000000
    0.0000000000000000    0.0000000000000000   21.7696450988124326
ATOMIC_SPECIES
 Ge   72.64000   Ge.upf
ATOMIC_POSITIONS crystal
 Ge   0.0000000000000000  0.0000000000000000  0.0000000000000000
 Ge   0.5000000000000000  0.0000000000000000  0.0000000000000000
 Ge   0.0000000000000000  0.5000000000000000  0.0000000000000000
 Ge   0.5000000000000000  0.5000000000000000  0.0000000000000000
 Ge   0.0000000000000000  0.0000000000000000  0.5000000000000000
 Ge   0.5000000000000000  0.0000000000000000  0.5000000000000000
 Ge   0.0000000000000000  0.5000000000000000  0.5000000000000000
 Ge   0.5000000000000000  0.5000000000000000  0.5000000000000000
 Ge   0.1250000000000000  0.1250000000000000  0.1250000000000000
 Ge   0.6250000000000000  0.1250000000000000  0.1250000000000000
 Ge   0.1250000000000000  0.6250000000000000  0.1250000000000000
 Ge   0.6250000000000000  0.6250000000000000  0.1250000000000000
 Ge   0.1250000000000000  0.1250000000000000  0.6250000000000000
 Ge   0.6250000000000000  0.1250000000000000  0.6250000000000000
 Ge   0.1250000000000000  0.6250000000000000  0.6250000000000000
 Ge   0.6250000000000000  0.6250000000000000  0.6250000000000000
 Ge   0.2500000000000000  0.2500000000000000  0.0000000000000000
 Ge   0.7500000000000000  0.2500000000000000  0.0000000000000000
 Ge   0.2500000000000000  0.7500000000000000  0.0000000000000000
 Ge   0.7500000000000000  0.7500000000000000  0.0000000000000000
 Ge   0.2500000000000000  0.2500000000000000  0.5000000000000000
 Ge   0.7500000000000000  0.2500000000000000  0.5000000000000000
 Ge   0.2500000000000000  0.7500000000000000  0.5000000000000000
 Ge   0.7500000000000000  0.7500000000000000  0.5000000000000000
 Ge   0.3750000000000000  0.3750000000000000  0.1250000000000000
 Ge   0.8750000000000000  0.3750000000000000  0.1250000000000000
 Ge   0.3750000000000000  0.8750000000000000  0.1250000000000000
 Ge   0.8750000000000000  0.8750000000000000  0.1250000000000000
 Ge   0.3750000000000000  0.3750000000000000  0.6250000000000000
 Ge   0.8750000000000000  0.3750000000000000  0.6250000000000000
 Ge   0.3750000000000000  0.8750000000000000  0.6250000000000000
 Ge   0.8750000000000000  0.8750000000000000  0.6250000000000000
 Ge   0.2500000000000000  0.0000000000000000  0.2500000000000000
 Ge   0.7500000000000000  0.0000000000000000  0.2500000000000000
 Ge   0.2500000000000000  0.5000000000000000  0.2500000000000000
 Ge   0.7500000000000000  0.5000000000000000  0.2500000000000000
 Ge   0.2500000000000000  0.0000000000000000  0.7500000000000000
 Ge   0.7500000000000000  0.0000000000000000  0.7500000000000000
 Ge   0.2500000000000000  0.5000000000000000  0.7500000000000000
 Ge   0.7500000000000000  0.5000000000000000  0.7500000000000000
 Ge   0.3750000000000000  0.1250000000000000  0.3750000000000000
 Ge   0.8750000000000000  0.1250000000000000  0.3750000000000000
 Ge   0.3750000000000000  0.6250000000000000  0.3750000000000000
 Ge   0.8750000000000000  0.6250000000000000  0.3750000000000000
 Ge   0.3750000000000000  0.1250000000000000  0.8750000000000000
 Ge   0.8750000000000000  0.1250000000000000  0.8750000000000000
 Ge   0.3750000000000000  0.6250000000000000  0.8750000000000000
 Ge   0.8750000000000000  0.6250000000000000  0.8750000000000000
 Ge   0.0000000000000000  0.2500000000000000  0.2500000000000000
 Ge   0.5000000000000000  0.2500000000000000  0.2500000000000000
 Ge   0.0000000000000000  0.7500000000000000  0.2500000000000000
 Ge   0.5000000000000000  0.7500000000000000  0.2500000000000000
 Ge   0.0000000000000000  0.2500000000000000  0.7500000000000000
 Ge   0.5000000000000000  0.2500000000000000  0.7500000000000000
 Ge   0.0000000000000000  0.7500000000000000  0.7500000000000000
 Ge   0.5000000000000000  0.7500000000000000  0.7500000000000000
 Ge   0.1250000000000000  0.3750000000000000  0.3750000000000000
 Ge   0.6250000000000000  0.3750000000000000  0.3750000000000000
 Ge   0.1250000000000000  0.8750000000000000  0.3750000000000000
 Ge   0.6250000000000000  0.8750000000000000  0.3750000000000000
 Ge   0.1250000000000000  0.3750000000000000  0.8750000000000000
 Ge   0.6250000000000000  0.3750000000000000  0.8750000000000000
 Ge   0.1250000000000000  0.8750000000000000  0.8750000000000000
 Ge   0.6250000000000000  0.8750000000000000  0.8750000000000000
