&CONTROL
   calculation      = 'vc-relax'
   restart_mode     = 'from_scratch'
   tstress          = .true.
   tprnfor          = .true.
   outdir           = './out'
   prefix           = 'ge'
   pseudo_dir       = './'
/
&SYSTEM
   ibrav            = 0
   ecutwfc          = 80.0
   ntyp             = 2
   nat              = 6
/
&ELECTRONS
   mixing_beta      = 0.4
/
&IONS
    ion_dynamics  = 'bfgs'            ! Algorithm for ion minimization
/

&CELL
    cell_dynamics = 'bfgs'
    press         = 0.0		      ! Target pressure in kbar
    cell_dofree   = 'all'             ! Full optimization of lattice vectors 
/
&FCP
/
&RISM
/
ATOMIC_SPECIES
Ge 72.63 Ge.upf
O 15.999 O.upf

K_POINTS automatic
6 4 4  0 0 0

CELL_PARAMETERS angstrom
2.87000000000000 0.00000000000000 0.00000000000000
0.00000000000000 4.41000000000000 0.00000000000000
0.00000000000000 0.00000000000000 4.41000000000000

ATOMIC_POSITIONS angstrom
Ge 1.4382571700 2.2062121750 2.2062121750  
Ge 0.0000000000 0.0000000000 0.0000000000  
O 0.0000000000 3.0632339589 3.0632339589  
O 1.4382571700 3.5554025661 0.8570217839  
O 0.0000000000 1.3491903911 1.3491903911  
O 1.4382571700 0.8570217839 3.5554025661  

