&CONTROL
   calculation      = 'relax'
   restart_mode     = 'from_scratch'
   tstress          = .false.
   tprnfor          = .true.
   outdir           = './out'
   prefix           = 'ge'
   pseudo_dir       = './'
   nstep            = 100
/
&SYSTEM
   ibrav            = 0
   ecutwfc          = 60.0
   occupations      = 'smearing'
   degauss          = 0.01
   smearing         = 'gaussian'
   ntyp             = 1
   nat              = 32
/
&ELECTRONS
   mixing_beta      = 0.4
/
&IONS
   ion_dynamics     = 'bfgs'
/
&CELL
/
&FCP
/
&RISM
/
ATOMIC_SPECIES
Ge 72.63 Ge.upf

K_POINTS automatic
2 2 1  0 0 0

CELL_PARAMETERS angstrom
8.16001225489276 0.00000000000000 0.00000000000000
0.00000000000000 8.16001225489276 0.00000000000000
0.00000000000000 0.00000000000000 20.09750000000000

ATOMIC_POSITIONS angstrom
Ge 0.0053686758 0.0018899757 5.0152158925  
Ge 2.0337115979 0.0129865218 6.4314834912  
Ge 2.0479466504 2.0230548576 7.8938821374  
Ge 0.0186038181 2.0531397972 9.3260420032  
Ge 0.0141396007 0.0079048151 10.7549617829  
Ge 2.0309116424 0.0068369848 12.2099782563  
Ge 2.0435132523 2.0204562657 13.6697577909  
Ge 0.0000868287 2.0459549741 15.1044176223  
Ge 0.0109945513 4.0642981777 5.0051924827  
Ge 2.0331144112 4.0740459457 6.4349645861  
Ge 2.0418123192 6.1295131831 7.8668290082  
Ge -0.0000869795 6.1356037397 9.3084831101  
Ge 0.0165470417 4.0640311682 10.7672174923  
Ge 2.0238137287 4.0768904492 12.2158935093  
Ge 2.0364740400 6.1062676786 13.6651271391  
Ge -0.0068944836 6.1281159397 15.0897172846  
Ge 4.0949498052 -0.0051355921 5.0153911810  
Ge 6.1367192999 0.0096641996 6.4388517053  
Ge 6.1070421028 2.0256259872 7.8722031883  
Ge 4.0648531002 2.0364972257 9.3400083754  
Ge 4.0630910687 -0.0195945103 10.7693468188  
Ge 6.1051011210 0.0057256617 12.2245604418  
Ge 6.1374864958 2.0304536144 13.6615647821  
Ge 4.0973325798 2.0382840925 15.0835922068  
Ge 4.0909796149 4.0727592860 4.9802487876  
Ge 6.1399656275 4.0912717678 6.4490339187  
Ge 6.1152182338 6.1201543840 7.8862157676  
Ge 4.0870296422 6.1379983833 9.3160084241  
Ge 4.0807047706 4.0829486061 10.7682603639  
Ge 6.1396239748 4.0768656847 12.2318793036  
Ge 6.1183498326 6.1116841137 13.6368549152  
Ge 4.0787418131 6.1089940002 15.1012439106  

