&CONTROL
   calculation      = 'relax'
   restart_mode     = 'from_scratch'
   tstress          = .false.
   tprnfor          = .true.
   outdir           = './out'
   prefix           = 'ge'
   pseudo_dir       = './'
/
&SYSTEM
   ibrav            = 0
   ecutwfc          = 60.0
   occupations      = 'smearing'
   degauss          = 0.01
   smearing         = 'gaussian'
   ntyp             = 1
   nat              = 64
/
&ELECTRONS
   mixing_beta      = 0.4
/
&IONS
   ion_dynamics     = 'bfgs'
/
&CELL
/
&FCP
/
&RISM
/
ATOMIC_SPECIES
Ge 72.63 Ge.upf

K_POINTS gamma

CELL_PARAMETERS angstrom
11.34970842970876 0.00000000000000 0.00000000000000
0.00000000000000 11.34970842970876 0.00000000000000
0.00000000000000 0.00000000000000 19.93099487599516

ATOMIC_POSITIONS angstrom
Ge 0.0026580244 2.8479820039 5.0063065212  
Ge 1.4221627280 4.2571503273 6.4073454559  
Ge 2.8290106049 -0.0032140382 4.9877077750  
Ge 4.2640416257 1.4079893200 6.4159146010  
Ge -0.0185690815 -0.0091005649 7.8481096835  
Ge 1.4146049574 1.4266067842 9.2430124544  
Ge 2.8495996336 2.8353686440 7.8471314942  
Ge 4.2693709545 4.2532129879 9.2432094184  
Ge 0.0174493320 2.8459805558 10.6604831716  
Ge 1.4123771109 4.2492392080 12.1110067741  
Ge 2.8450938844 0.0027445506 10.6766331256  
Ge 4.2604338217 1.4330150989 12.0966980603  
Ge -0.0088459072 -0.0084281424 13.5319619950  
Ge 1.4116699122 1.4030840349 14.9129162522  
Ge 2.8365023594 2.8285090872 13.5129719307  
Ge 4.2408693673 4.2560023225 14.9201083642  
Ge -0.0197540097 8.5068949977 5.0046454877  
Ge 1.4017860611 9.9442953456 6.3999643745  
Ge 2.8455338757 5.6812295074 5.0140865933  
Ge 4.2684764547 7.1093793878 6.4264665830  
Ge -0.0190739661 5.6815278779 7.8241846734  
Ge 1.4121849298 7.0747056863 9.2577145406  
Ge 2.8214801064 8.5014077611 7.8309788462  
Ge 4.2395657757 9.9332649420 9.2495666974  
Ge -0.0195755977 8.5043415364 10.6865684666  
Ge 1.4181781668 9.9347206023 12.1032304193  
Ge 2.8450014754 5.6564878654 10.6707269007  
Ge 4.2555244505 7.0962461880 12.0760791196  
Ge -0.0089449770 5.6811167100 13.4936048627  
Ge 1.4098070167 7.0916171982 14.9217498975  
Ge 2.8336003604 8.5310642277 13.5211858808  
Ge 4.2400532224 9.9189361263 14.9336345343  
Ge 5.6843659801 2.8262427006 5.0166321281  
Ge 7.0847960013 4.2626128893 6.4277127921  
Ge 8.5217456125 0.0033145838 5.0092310694  
Ge 9.9428052526 1.4074539103 6.4199312425  
Ge 5.6632082246 -0.0129213705 7.8481338334  
Ge 7.1089316351 1.4319116676 9.2598591330  
Ge 8.4977477009 2.8262218399 7.8218568550  
Ge 9.9300505804 4.2500652629 9.2655792686  
Ge 5.6726225211 2.8558369887 10.6642870761  
Ge 7.0846819974 4.2646882560 12.0802323627  
Ge 8.4983036979 0.0179550402 10.6849203176  
Ge 9.9195665294 1.4231391876 12.0749910234  
Ge 5.6813624502 0.0163590862 13.5295728900  
Ge 7.0797652401 1.3999963107 14.9127793769  
Ge 8.5073443594 2.8383001398 13.4964700575  
Ge 9.9249033089 4.2367015941 14.9462141648  
Ge 5.6725785500 8.5279834086 5.0038078532  
Ge 7.0738669466 9.9427453853 6.4384432017  
Ge 8.4978617183 5.6567524876 4.9872030224  
Ge 9.9152865013 7.1009313095 6.4126461530  
Ge 5.6752766741 5.6678818219 7.8177210230  
Ge 7.0838272217 7.1045024465 9.2628525444  
Ge 8.5233557814 8.5065790927 7.8303596832  
Ge 9.9254730779 9.9400820895 9.2642084284  
Ge 5.6703677629 8.5166054817 10.6898474635  
Ge 7.0930250298 9.9263106899 12.0748474326  
Ge 8.5242099444 5.6861984297 10.6661353840  
Ge 9.9488319488 7.0795359428 12.1092121707  
Ge 5.6878969093 5.6892902013 13.5238480887  
Ge 7.0934654391 7.1077436237 14.9358568308  
Ge 8.4979848910 8.5190099040 13.5046779654  
Ge 9.9154991599 9.9204205040 14.9382980956  

