&CONTROL
   calculation      = 'relax'
   restart_mode     = 'from_scratch'
   tstress          = .false.
   tprnfor          = .true.
   outdir           = './out'
   prefix           = 'ge'
   pseudo_dir       = './'
/
&SYSTEM
   ibrav            = 0
   ecutwfc          = 60.0
   occupations      = 'smearing'
   degauss          = 0.01
   smearing         = 'gaussian'
   ntyp             = 1
   nat              = 32
/
&ELECTRONS
   mixing_beta      = 0.4
/
&IONS
   ion_dynamics     = 'bfgs'
/
&CELL
/
&FCP
/
&RISM
/
ATOMIC_SPECIES
Ge 72.63 Ge.upf

K_POINTS automatic
1 2 1  0 0 0

CELL_PARAMETERS angstrom
11.34970842970876 0.00000000000000 0.00000000000000
0.00000000000000 5.67485421485438 0.00000000000000
0.00000000000000 0.00000000000000 19.93099487599516

ATOMIC_POSITIONS angstrom
Ge -0.0107579469 2.8350592744 5.0110099550  
Ge 1.3992740640 4.2738978217 6.4308585130  
Ge 2.8209850578 0.0046074681 4.9886451077  
Ge 4.2420151878 1.4345460872 6.4086720184  
Ge 0.0114602107 0.0113309097 7.8283771698  
Ge 1.4062955274 1.4245653524 9.2722383830  
Ge 2.8334115119 2.8389169417 7.8573182033  
Ge 4.2613155532 4.2501252711 9.2498724485  
Ge -0.0039008550 2.8489772959 10.6595995108  
Ge 1.4248257434 4.2734757684 12.1092441769  
Ge 2.8474277540 0.0009448718 10.6797355815  
Ge 4.2508634332 1.4353673380 12.1107999763  
Ge -0.0147499490 -0.0179158327 13.5182367248  
Ge 1.4149373682 1.4003583597 14.9383438029  
Ge 2.8334740659 2.8532935262 13.5219077489  
Ge 4.2575809660 4.2706260363 14.9435362678  
Ge 5.6659100697 2.8360858127 5.0031915048  
Ge 7.0908550083 4.2638665257 6.4140206473  
Ge 8.5296532351 0.0189325207 4.9958133578  
Ge 9.9155259240 1.4340226361 6.4383337947  
Ge 5.6739803726 -0.0106628386 7.8337658640  
Ge 7.1131793411 1.4302193639 9.2401852121  
Ge 8.5116509229 2.8176939946 7.8485452558  
Ge 9.9338732904 4.2653521977 9.2470149795  
Ge 5.6917757976 2.8373417739 10.6848580906  
Ge 7.1064148923 4.2756114967 12.1056578943  
Ge 8.5090095234 0.0110855756 10.6777086375  
Ge 9.9300574515 1.4095475244 12.1120340431  
Ge 5.6689516319 0.0057952579 13.5197586981  
Ge 7.1124039453 1.4320684803 14.9267391519  
Ge 8.5202134666 2.8370579111 13.5149043926  
Ge 9.9357150698 4.2671145161 14.9442232561  

