&CONTROL
   calculation      = 'relax'
   restart_mode     = 'from_scratch'
   tstress          = .false.
   tprnfor          = .true.
   outdir           = './out'
   prefix           = 'ge'
   pseudo_dir       = './'
/
&SYSTEM
   ibrav            = 0
   ecutwfc          = 60.0
   occupations      = 'smearing'
   degauss          = 0.01
   smearing         = 'gaussian'
   ntyp             = 1
   nat              = 32
/
&ELECTRONS
   mixing_beta      = 0.4
/
&IONS
   ion_dynamics     = 'bfgs'
/
&CELL
/
&FCP
/
&RISM
/
ATOMIC_SPECIES
Ge 72.63 Ge.upf

K_POINTS automatic
4 4 1  0 0 0

CELL_PARAMETERS angstrom
11.34970842970876 0.00000000000000 0.00000000000000
0.00000000000000 5.67485421485438 0.00000000000000
0.00000000000000 0.00000000000000 19.93099487599516

ATOMIC_POSITIONS angstrom
Ge 0.0056904051 2.8325303303 5.0064898585  
Ge 1.4195470198 4.2463522680 6.4020731668  
Ge 2.8342211706 -0.0160737103 5.0139477152  
Ge 4.2531846459 1.4264344438 6.4013803809  
Ge 0.0025932704 0.0157781041 7.8249151067  
Ge 1.4265050431 1.4109526010 9.2639183580  
Ge 2.8218705655 2.8493049078 7.8204550986  
Ge 4.2434673928 4.2617781550 9.2403578118  
Ge 5.6687675240 2.8289848047 10.6596435146  
Ge 1.4347082272 4.2480110032 12.1107296061  
Ge 2.8269364162 0.0016680792 10.6816745814  
Ge 4.2458394370 1.4307597499 12.0971752424  
Ge 5.6867723523 0.0071073487 13.5295820157  
Ge 1.4238283226 1.4059928253 14.9182048605  
Ge 2.8287414812 2.8483885842 13.5237489597  
Ge 4.2587244196 4.2691706906 14.9458367433  
Ge 5.6832250411 2.8399156782 5.0038317533  
Ge 7.0944365585 4.2605252872 6.4154080719  
Ge 8.5284400708 -0.0176840128 4.9805693993  
Ge 9.9420147627 1.4011250200 6.4154596049  
Ge 5.6930580942 -0.0125292404 7.8356406993  
Ge 7.0976322612 1.4101747758 9.2677330577  
Ge 8.5157922650 2.8414675064 7.8544475058  
Ge 9.9501802707 4.2433151288 9.2584227234  
Ge -0.0043780949 2.8424656966 10.6784408449  
Ge 7.0865871098 4.2558360795 12.0899128101  
Ge 8.4931394955 0.0071084149 10.6633390926  
Ge 9.9435776759 1.4348152218 12.1015396095  
Ge -0.0090462926 0.0115964885 13.5304669564  
Ge 7.1116524061 1.4125484164 14.9119046838  
Ge 8.4965199203 2.8351283901 13.5183429049  
Ge 9.9434458565 4.2431461480 14.9349692303  

