&CONTROL
   calculation      = 'relax'
   restart_mode     = 'from_scratch'
   tstress          = .false.
   tprnfor          = .true.
   outdir           = './out'
   prefix           = 'ge'
   pseudo_dir       = './'
   nstep            = 100
/
&SYSTEM
   ibrav            = 0
   ecutwfc          = 60.0
   occupations      = 'smearing'
   degauss          = 0.01
   smearing         = 'gaussian'
   ntyp             = 1
   nat              = 16
/
&ELECTRONS
   mixing_beta      = 0.4
/
&IONS
   ion_dynamics     = 'bfgs'
/
&CELL
/
&FCP
/
&RISM
/
ATOMIC_SPECIES
Ge 72.63 Ge.upf

K_POINTS automatic
2 4 1  0 0 0

CELL_PARAMETERS angstrom
8.16001225489276 0.00000000000000 0.00000000000000
0.00000000000000 4.08000612744638 0.00000000000000
0.00000000000000 0.00000000000000 20.09750000000000

ATOMIC_POSITIONS angstrom
Ge 0.0005996954 0.0114112151 5.0010832473  
Ge 2.0549572473 0.0177807507 6.4613762158  
Ge 2.0476131769 2.0580380392 7.8979134276  
Ge 0.0168010818 2.0210781203 9.3203966438  
Ge -0.0105106627 -0.0089168077 10.7686919442  
Ge 2.0511768271 -0.0067112468 12.2086369997  
Ge 2.0534926133 2.0370896825 13.6598949551  
Ge 0.0017055383 2.0350506601 15.0824279542  
Ge 4.0622481939 -0.0076264297 4.9819204496  
Ge 6.1057342530 -0.0004123894 6.4464380791  
Ge 6.1112802799 2.0254252142 7.8673951946  
Ge 4.0687017040 2.0262591327 9.3352348927  
Ge 4.0666577619 0.0128449198 10.7719104064  
Ge 6.1396914253 0.0171619601 12.2209462814  
Ge 6.1213261564 2.0349083903 13.6467084342  
Ge 4.0776835730 2.0476785562 15.1091404546  

