&CONTROL
   calculation      = 'relax'
   restart_mode     = 'from_scratch'
   tstress          = .false.
   tprnfor          = .true.
   outdir           = './out'
   prefix           = 'ge'
   pseudo_dir       = './'
/
&SYSTEM
   ibrav            = 0
   ecutwfc          = 60.0
   occupations      = 'smearing'
   degauss          = 0.01
   smearing         = 'gaussian'
   ntyp             = 1
   nat              = 16
/
&ELECTRONS
   mixing_beta      = 0.4
/
&IONS
   ion_dynamics    = 'bfgs'
/
&CELL
/
&FCP
/
&RISM
/
ATOMIC_SPECIES
Ge 72.63 Ge.upf

K_POINTS automatic
2 4 1  0 0 0

CELL_PARAMETERS angstrom
8.02545571287614 0.00000000000000 0.00000000000000
2.00636488678105 3.47512423245091 0.00000000000000
0.00000000000000 0.00000000000000 22.28642013896210

ATOMIC_POSITIONS angstrom
Ge 1.0031825972 0.5791874390 7.4572840278  
Ge 1.0031821915 0.5791873816 5.0000000000  
Ge 3.0095473858 1.7375622596 10.7336627315  
Ge 3.0095469801 1.7375622022 8.2763787037  
Ge 5.0159121745 2.8959370802 14.0100414352  
Ge 5.0159117688 2.8959370228 11.5527574074  
Ge 1.0031842199 0.5791876683 17.2864201390  
Ge 1.0031838143 0.5791876110 14.8291361112  
Ge 5.0159104536 0.5791874390 7.4572840278  
Ge 5.0159100479 0.5791873816 5.0000000000  
Ge 7.0222752423 1.7375622596 10.7336627315  
Ge 7.0222748366 1.7375622022 8.2763787037  
Ge 9.0286400309 2.8959370802 14.0100414352  
Ge 9.0286396252 2.8959370228 11.5527574074  
Ge 5.0159120764 0.5791876683 17.2864201390  
Ge 5.0159116707 0.5791876110 14.8291361112  

