&BANDS
  prefix = 'Ge_scf'        ! Same prefix given in the SCF and BANDS input files
  outdir = './Ge_out'      ! Same outdir given in the SCF and BANDS input files
  filband = 'ge_bands.dat' ! Name of the output file used to plot the band structure
/
