&DOS
  prefix = 'Ge_scf'        ! Same prefix given in the SCF and BANDS input files
  outdir = './Ge_out'      ! Same outdir given in the SCF and BANDS input files
  fildos = 'ge_dos.dat'    ! Name of the output file used to plot the density of states
  emin = -5.d0             ! Minium eigenvalue energy to compute DOS
  emax = 20.d0             ! Maximum eigenvalue energy to compute DOS
/
