&CONTROL
   calculation      = 'relax'
   restart_mode     = 'from_scratch'
   tstress          = .false.
   tprnfor          = .true.
   outdir           = './out'
   prefix           = 'ge'
   pseudo_dir       = './'
/
&SYSTEM
   ibrav            = 0
   ecutwfc          = 60.0
   occupations      = 'smearing'
   degauss          = 0.01
   smearing         = 'gaussian'
   ntyp             = 1
   nat              = 16
/
&ELECTRONS
   mixing_beta      = 0.4
/
&IONS
   ion_dynamics     = 'bfgs'
/
&CELL
/
&FCP
/
&RISM
/
ATOMIC_SPECIES
Ge 72.63 Ge.upf

K_POINTS automatic
4 2 1  0 0 0

CELL_PARAMETERS angstrom
4.08000612744638 0.00000000000000 0.00000000000000
0.00000000000000 8.16001225489276 0.00000000000000
0.00000000000000 0.00000000000000 20.09750000000000

ATOMIC_POSITIONS angstrom
Ge -0.0123080890 0.0093114235 4.9977677573  
Ge 2.0258378768 -0.0174502685 6.4532934124  
Ge 2.0489946453 2.0455735634 7.8789929578  
Ge -0.0181104222 2.0362275331 9.3230489510  
Ge 0.0150962764 -0.0111359502 10.7777635459  
Ge 2.0324775684 -0.0151214337 12.2008393139  
Ge 2.0502893331 2.0472724598 13.6643432333  
Ge -0.0058662002 2.0535361259 15.0908030270  
Ge -0.0166196280 4.0611451253 5.0174393257  
Ge 2.0329828914 4.0823348857 6.4614012108  
Ge 2.0244179069 6.1129904893 7.8656473534  
Ge -0.0000123870 6.1081774625 9.3269614724  
Ge 0.0134527676 4.0667734399 10.7625235047  
Ge 2.0367551491 4.0679321160 12.2215306790  
Ge 2.0597754676 6.1269005721 13.6485332425  
Ge 0.0137779521 6.1230939614 15.0826635473  

