&CONTROL
   calculation      = 'relax'
   restart_mode     = 'from_scratch'
   tstress          = .false.
   tprnfor          = .true.
   outdir           = './out'
   prefix           = 'ge'
   pseudo_dir       = './'
/
&SYSTEM
   ibrav            = 0
   ecutwfc          = 60.0
   occupations      = 'smearing'
   degauss          = 0.01
   smearing         = 'gaussian'
   ntyp             = 1
   nat              = 16
/
&ELECTRONS
   mixing_beta      = 0.4
/
&IONS
   ion_dynamics    = 'bfgs'
/
&CELL
/
&FCP
/
&RISM
/
ATOMIC_SPECIES
Ge 72.63 Ge.upf

K_POINTS automatic
2 4 1  0 0 0

CELL_PARAMETERS angstrom
8.02545510109794 0.00000000000000 0.00000000000000
-2.00636322071925 3.47512408750012 0.00000000000000
0.00000000000000 0.00000000000000 20.64823204296020

ATOMIC_POSITIONS angstrom
Ge 2.0063641912 1.1583745874 5.8190947725  
Ge 0.0000001386 -0.0000000651 5.0000000000  
Ge 0.0000009705 2.3167491098 9.0954738627  
Ge 2.0063644685 1.1583744573 8.2763790901  
Ge 0.0000009705 -0.0000004554 12.3718529528  
Ge 0.0000012477 2.3167489797 11.5527581803  
Ge 2.0063653003 1.1583740670 15.6482320430  
Ge 0.0000012477 -0.0000005855 14.8291372704  
Ge 6.0190917417 1.1583745874 5.8190947725  
Ge 4.0127276892 -0.0000000651 5.0000000000  
Ge 4.0127285210 2.3167491098 9.0954738627  
Ge 6.0190920190 1.1583744573 8.2763790901  
Ge 4.0127285210 -0.0000004554 12.3718529528  
Ge 4.0127287983 2.3167489797 11.5527581803  
Ge 6.0190928509 1.1583740670 15.6482320430  
Ge 4.0127287983 -0.0000005855 14.8291372704  

