&CONTROL
   calculation      = 'relax'
   restart_mode     = 'from_scratch'
   tstress          = .false.
   tprnfor          = .true.
   outdir           = './out'
   prefix           = 'ge'
   pseudo_dir       = './'
/
&SYSTEM
   ibrav            = 0
   ecutwfc          = 60.0
   occupations      = 'smearing'
   degauss          = 0.01
   smearing         = 'gaussian'
   ntyp             = 1
   nat              = 32
/
&ELECTRONS
   mixing_beta      = 0.4
/
&IONS
   ion_dynamics     = 'bfgs'
/
&CELL
/
&FCP
/
&RISM
/
ATOMIC_SPECIES
Ge 72.63 Ge.upf

K_POINTS automatic
4 4 1  0 0 0

CELL_PARAMETERS angstrom
16.05091159027436 0.00000000000000 0.00000000000000
-4.01272789756859 6.95024859553784 0.00000000000000
0.00000000000000 0.00000000000000 14.09547326069757

ATOMIC_POSITIONS angstrom
Ge 4.0115517988 4.6463157689 5.8250683738  
Ge -0.0137536058 2.3125030258 4.9924183592  
Ge 6.0190891497 1.1590592894 5.8286990285  
Ge -2.0175602846 5.7969881849 4.9880041428  
Ge 2.0180562191 1.1754145951 5.8205345742  
Ge 2.0009375603 5.7989262245 5.0155057893  
Ge 0.0102709741 4.6140764369 5.8110681654  
Ge 4.0175320333 2.3017646886 5.0194328028  
Ge 3.9940107685 0.0004844806 9.0762291085  
Ge 4.0275469138 4.6465909205 8.2610555370  
Ge 1.9985837888 3.4694469295 9.0883204747  
Ge 6.0195549562 1.1518268847 8.2929678450  
Ge 6.0314858545 3.4802974273 9.0776334881  
Ge 2.0006436852 1.1665441740 8.2918822380  
Ge 8.0166582371 0.0176508061 9.0929162003  
Ge -0.0127689456 4.6237934298 8.2653513355  
Ge 12.0336435410 4.6279549841 5.8128489436  
Ge 8.0418517538 2.3242572275 5.0108486465  
Ge 14.0291042031 1.1574064057 5.8242852559  
Ge 6.0307843584 5.7796781999 4.9964113018  
Ge 10.0463958068 1.1445433801 5.8202545864  
Ge 10.0167731117 5.7812402994 5.0084596592  
Ge 8.0304665396 4.6341252366 5.8296981717  
Ge 12.0579421277 2.2970789907 5.0191440824  
Ge 12.0343216534 0.0130838542 9.1024346414  
Ge 12.0182632758 4.6512871713 8.2589929182  
Ge 10.0136787360 3.4648742910 9.0947316816  
Ge 14.0254635343 1.1578985986 8.2630202218  
Ge -2.0180038009 3.4861390651 9.1147388335  
Ge 10.0492128441 1.1583159356 8.2746159050  
Ge 0.0025469703 -0.0002707257 9.1142783329  
Ge 8.0250175105 4.6383094489 8.2754103805  

