&CONTROL
   calculation      = 'relax'
   restart_mode     = 'from_scratch'
   nstep            = 100
   tstress          = .false.
   tprnfor          = .true.
   outdir           = './out'
   prefix           = 'ge'
   pseudo_dir       = './'
/
&SYSTEM
   ibrav            = 0
   ecutwfc          = 60.0
   occupations      = 'smearing'
   degauss          = 0.01
   smearing         = 'gaussian'
   ntyp             = 1
   nat              = 32
/
&ELECTRONS
   mixing_beta      = 0.4
/
&IONS
   ion_dynamics     = 'bfgs'
/
&CELL
/
&FCP
/
&RISM
/
ATOMIC_SPECIES
Ge 72.63 Ge.upf

K_POINTS automatic
4 4 1  0 0 0

CELL_PARAMETERS angstrom
16.05091159027436 0.00000000000000 0.00000000000000
4.01272789756859 6.95024859553784 0.00000000000000
0.00000000000000 0.00000000000000 14.09547326069757

ATOMIC_POSITIONS angstrom
Ge 10.0508406190 5.7976219784 5.8208483086  
Ge 1.9910260738 1.1641278635 4.9807375193  
Ge 8.0183511774 2.3218984009 5.8369021672  
Ge 4.0015997537 4.6299669194 4.9906294057  
Ge 6.0371383802 5.7810121209 5.8131041225  
Ge 6.0101610614 1.1631738238 4.9803686086  
Ge 4.0278059895 2.3282057569 5.8201234671  
Ge 8.0239855123 4.6490109883 5.0140324260  
Ge 6.0254902109 3.4607614458 9.0844770558  
Ge 10.0468038330 5.8015873633 8.2750043370  
Ge 4.0015547582 0.0074581886 9.0863168298  
Ge 8.0425888239 2.3306691779 8.2760053679  
Ge 2.0221222033 3.4573969825 9.0902210290  
Ge 6.0042552438 5.7758820141 8.2687032794  
Ge -0.0196824469 0.0174926146 9.1147594192  
Ge 3.9936335942 2.3310362462 8.2621705464  
Ge 18.0404379410 5.8116955837 5.8193954030  
Ge 10.0464041708 1.1516243031 4.9947979349  
Ge 16.0360050031 2.3082675003 5.8044457967  
Ge 12.0572031399 4.6160398230 5.0049156970  
Ge 14.0495963995 5.7875415610 5.8112604926  
Ge 14.0355983512 1.1731237760 5.0199041874  
Ge 12.0317845898 2.3133168447 5.8255951856  
Ge 16.0671024167 4.6149975459 5.0163406991  
Ge 14.0502107206 3.4899740537 9.0861585565  
Ge 18.0710305332 5.8011919828 8.2820648671  
Ge 12.0458642631 0.0076680532 9.0852371382  
Ge 16.0382180648 2.3154932777 8.2746649924  
Ge 10.0148963953 3.4818904506 9.1024040739  
Ge 14.0585368959 5.7751065563 8.2642060571  
Ge 8.0185481513 -0.0170617308 9.0900685261  
Ge 12.0341630486 2.2976117421 8.2622847951  

