&CONTROL
   calculation      = 'relax'
   restart_mode     = 'from_scratch'
   tstress          = .false.
   tprnfor          = .true.
   outdir           = './out'
   prefix           = 'ge'
   pseudo_dir       = './'
/
&SYSTEM
   ibrav            = 0
   ecutwfc          = 60.0
   occupations      = 'smearing'
   degauss          = 0.01
   smearing         = 'gaussian'
   ntyp             = 1
   nat              = 64
/
&ELECTRONS
   mixing_beta      = 0.4
/
&IONS
   ion_dynamics     = 'bfgs'
/
&CELL
/
&FCP
/
&RISM
/
ATOMIC_SPECIES
Ge 72.63 Ge.upf

K_POINTS automatic
4 4 1  0 0 0

CELL_PARAMETERS angstrom
16.05091159027436 0.00000000000000 0.00000000000000
-4.01272789756859 6.95024859553784 0.00000000000000
0.00000000000000 0.00000000000000 20.64823047781368

ATOMIC_POSITIONS angstrom
Ge 4.0049258428 4.6516182852 5.8309377875  
Ge 0.0146640174 2.3261403965 5.0121921114  
Ge 6.0253386398 1.1693601420 5.8142756035  
Ge -2.0080008483 5.7727022745 5.0147860400  
Ge 2.0216192548 1.1511810559 5.8320149021  
Ge 1.9876896158 5.8096539619 4.9853680335  
Ge -0.0076495933 4.6391857228 5.8021648707  
Ge 4.0094226115 2.2999855587 5.0073119711  
Ge 4.0236553913 -0.0106943396 9.0808631719  
Ge 4.0132906290 4.6445943609 8.2898717991  
Ge 1.9923031794 3.4880704544 9.1110111833  
Ge 6.0041941128 1.1415766088 8.2758193985  
Ge -1.9884274398 3.4647722902 9.1012139232  
Ge 2.0202353500 1.1440722122 8.2631601217  
Ge -0.0057908434 -0.0082204127 9.0825347567  
Ge -0.0019333588 4.6333727157 8.2763667615  
Ge 0.0059594107 2.2999463470 12.3688336036  
Ge 3.9943115476 -0.0011302803 11.5495214517  
Ge -2.0153739606 5.7971294110 12.3639441820  
Ge 2.0020978215 3.4861300032 11.5425697091  
Ge 1.9915796063 5.8034292782 12.3579743115  
Ge -1.9928863503 3.4606824416 11.5597548082  
Ge 4.0032208322 2.3294819436 12.3597239742  
Ge -0.0193684963 0.0135411504 11.5564557654  
Ge 4.0067701153 4.6306785000 15.6541346099  
Ge 0.0077123073 2.3345084773 14.8169215778  
Ge 6.0134192312 1.1540903290 15.6493644422  
Ge -2.0185728088 5.8026851518 14.8235056218  
Ge 2.0156503535 1.1453998681 15.6385293172  
Ge 2.0076588263 5.7802321264 14.8478451945  
Ge -0.0187876141 4.6228336244 15.6343076280  
Ge 4.0272441087 2.3274136598 14.8114420755  
Ge 12.0466756273 4.6351150966 5.8189587547  
Ge 8.0316062851 2.3034838915 4.9845996063  
Ge 14.0267620630 1.1756181381 5.8006218942  
Ge 6.0235431232 5.7725526438 4.9914880500  
Ge 10.0284819525 1.1462407665 5.8374063487  
Ge 10.0456493577 5.7879861690 4.9971758588  
Ge 8.0381451631 4.6507200393 5.8349702673  
Ge 12.0183043082 2.3135772496 5.0049933435  
Ge 12.0435347840 -0.0057275244 9.0866579125  
Ge 12.0532526405 4.6336597421 8.2682790696  
Ge 10.0455734068 3.4558546001 9.0946558050  
Ge 14.0619601998 1.1524786068 8.2688285796  
Ge 6.0376932331 3.4771952924 9.1055184257  
Ge 10.0386389038 1.1393932477 8.2791043517  
Ge 8.0370189700 0.0094527900 9.1022635165  
Ge 8.0183478574 4.6418890763 8.2817383139  
Ge 8.0259999946 2.3226054773 12.3742758897  
Ge 12.0318662915 0.0083677724 11.5532464364  
Ge 6.0390644948 5.7816915981 12.3821707677  
Ge 10.0147005631 3.4790301612 11.5448965981  
Ge 10.0443507447 5.7846149415 12.3835582342  
Ge 6.0390635499 3.4762667543 11.5401347871  
Ge 12.0526112178 2.3061183835 12.3900131640  
Ge 8.0132255911 -0.0132761464 11.5665003886  
Ge 12.0300557857 4.6326126801 15.6285875623  
Ge 8.0259775817 2.3277962445 14.8326415420  
Ge 14.0283233288 1.1772483745 15.6300120210  
Ge 6.0213680329 5.7997983584 14.8475133524  
Ge 10.0321026731 1.1669540371 15.6516878269  
Ge 10.0448709094 5.7764880427 14.8330705860  
Ge 8.0180337695 4.6287667575 15.6566556910  
Ge 12.0562305290 2.2975612193 14.8115889444  

