
     Program PWSCF v.7.2 starts on  8May2026 at 11:11:14 

     This program is part of the open-source Quantum ESPRESSO suite
     for quantum simulation of materials; please cite
         "P. Giannozzi et al., J. Phys.:Condens. Matter 21 395502 (2009);
         "P. Giannozzi et al., J. Phys.:Condens. Matter 29 465901 (2017);
         "P. Giannozzi et al., J. Chem. Phys. 152 154105 (2020);
          URL http://www.quantum-espresso.org", 
     in publications or presentations arising from this work. More details at
     http://www.quantum-espresso.org/quote

     Parallel version (MPI), running on    16 processors

     MPI processes distributed on     1 nodes
     97514 MiB available memory on the printing compute node when the environment starts

     Waiting for input...
     Reading input from standard input

     Current dimensions of program PWSCF are:
     Max number of different atomic species (ntypx) = 10
     Max number of k-points (npk) =  40000
     Max angular momentum in pseudopotentials (lmaxx) =  4
     Found identity + ( -0.5000 -0.5000  0.0000) symmetry
     This is a supercell, fractional translations are disabled

     K-points division:     npool     =       4
     R & G space division:  proc/nbgrp/npool/nimage =       4
     Subspace diagonalization in iterative solution of the eigenvalue problem:
     a serial algorithm will be used


     Parallelization info
     --------------------
     sticks:   dense  smooth     PW     G-vecs:    dense   smooth      PW
     Min         751     751    211                31149    31149    4581
     Max         752     752    212                31150    31150    4584
     Sum        3007    3007    845               124599   124599   18329

     Using Slab Decomposition



     bravais-lattice index     =            0
     lattice parameter (alat)  =      10.8848  a.u.
     unit-cell volume          =    1289.5946 (a.u.)^3
     number of atoms/cell      =            8
     number of atomic types    =            1
     number of electrons       =       112.00
     number of Kohn-Sham states=           67
     kinetic-energy cutoff     =      80.0000  Ry
     charge density cutoff     =     320.0000  Ry
     scf convergence threshold =      1.0E-08
     mixing beta               =       0.4000
     number of iterations used =            8  plain     mixing
     Exchange-correlation= PBE
                           (   1   4   3   4   0   0   0)

     celldm(1)=  10.884822  celldm(2)=   0.000000  celldm(3)=   0.000000
     celldm(4)=   0.000000  celldm(5)=   0.000000  celldm(6)=   0.000000

     crystal axes: (cart. coord. in units of alat)
               a(1) = (   1.000000   0.005000   0.000000 )  
               a(2) = (   0.005000   1.000000   0.000000 )  
               a(3) = (   0.000000   0.000000   1.000000 )  

     reciprocal axes: (cart. coord. in units 2 pi/alat)
               b(1) = (  1.000025 -0.005000  0.000000 )  
               b(2) = ( -0.005000  1.000025  0.000000 )  
               b(3) = (  0.000000  0.000000  1.000000 )  


     PseudoPot. # 1 for Ge read from file:
     ./Ge.upf
     MD5 check sum: 087fa14d6c89b52166990835c3b338da
     Pseudo is Norm-conserving + core correction, Zval = 14.0
     Generated using ONCVPSP code by D. R. Hamann
     Using radial grid of 1560 points,  6 beta functions with: 
                l(1) =   0
                l(2) =   0
                l(3) =   1
                l(4) =   1
                l(5) =   2
                l(6) =   2

     atomic species   valence    mass     pseudopotential
        Ge            14.00    72.63000     Ge( 1.00)

     No symmetry found



   Cartesian axes

     site n.     atom                  positions (alat units)
         1           Ge  tau(   1) = (   0.0000000   0.0000000   0.0000000  )
         2           Ge  tau(   2) = (   0.5025000   0.5025000   0.0000000  )
         3           Ge  tau(   3) = (   0.5000000   0.0025000   0.5000000  )
         4           Ge  tau(   4) = (   0.0025000   0.5000000   0.5000000  )
         5           Ge  tau(   5) = (   0.2512500   0.2512500   0.2500000  )
         6           Ge  tau(   6) = (   0.7537500   0.7537500   0.2500000  )
         7           Ge  tau(   7) = (   0.7512500   0.2537500   0.7500000  )
         8           Ge  tau(   8) = (   0.2537500   0.7512500   0.7500000  )

     number of k points=    36  Gaussian smearing, width (Ry)=  0.0100
                       cart. coord. in units 2pi/alat
        k(    1) = (   0.0000000   0.0000000   0.0000000), wk =   0.0312500
        k(    2) = (   0.0000000   0.0000000   0.2500000), wk =   0.0625000
        k(    3) = (   0.0000000   0.0000000  -0.5000000), wk =   0.0312500
        k(    4) = (  -0.0012500   0.2500063   0.0000000), wk =   0.0625000
        k(    5) = (  -0.0012500   0.2500063   0.2500000), wk =   0.0625000
        k(    6) = (  -0.0012500   0.2500063  -0.5000000), wk =   0.0625000
        k(    7) = (  -0.0012500   0.2500063  -0.2500000), wk =   0.0625000
        k(    8) = (   0.0025001  -0.5000125   0.0000000), wk =   0.0312500
        k(    9) = (   0.0025001  -0.5000125   0.2500000), wk =   0.0625000
        k(   10) = (   0.0025001  -0.5000125  -0.5000000), wk =   0.0312500
        k(   11) = (   0.2500063  -0.0012500   0.0000000), wk =   0.0625000
        k(   12) = (   0.2500063  -0.0012500   0.2500000), wk =   0.0625000
        k(   13) = (   0.2500063  -0.0012500  -0.5000000), wk =   0.0625000
        k(   14) = (   0.2500063  -0.0012500  -0.2500000), wk =   0.0625000
        k(   15) = (   0.2487562   0.2487562   0.0000000), wk =   0.0625000
        k(   16) = (   0.2487562   0.2487562   0.2500000), wk =   0.0625000
        k(   17) = (   0.2487562   0.2487562  -0.5000000), wk =   0.0625000
        k(   18) = (   0.2487562   0.2487562  -0.2500000), wk =   0.0625000
        k(   19) = (   0.2525063  -0.5012625   0.0000000), wk =   0.0625000
        k(   20) = (   0.2525063  -0.5012625   0.2500000), wk =   0.0625000
        k(   21) = (   0.2525063  -0.5012625  -0.5000000), wk =   0.0625000
        k(   22) = (   0.2525063  -0.5012625  -0.2500000), wk =   0.0625000
        k(   23) = (   0.2512563  -0.2512563   0.0000000), wk =   0.0625000
        k(   24) = (   0.2512563  -0.2512563   0.2500000), wk =   0.0625000
        k(   25) = (   0.2512563  -0.2512563  -0.5000000), wk =   0.0625000
        k(   26) = (   0.2512563  -0.2512563  -0.2500000), wk =   0.0625000
        k(   27) = (  -0.5000125   0.0025001   0.0000000), wk =   0.0312500
        k(   28) = (  -0.5000125   0.0025001   0.2500000), wk =   0.0625000
        k(   29) = (  -0.5000125   0.0025001  -0.5000000), wk =   0.0312500
        k(   30) = (  -0.5012625   0.2525063   0.0000000), wk =   0.0625000
        k(   31) = (  -0.5012625   0.2525063   0.2500000), wk =   0.0625000
        k(   32) = (  -0.5012625   0.2525063  -0.5000000), wk =   0.0625000
        k(   33) = (  -0.5012625   0.2525063  -0.2500000), wk =   0.0625000
        k(   34) = (  -0.4975124  -0.4975124   0.0000000), wk =   0.0312500
        k(   35) = (  -0.4975124  -0.4975124   0.2500000), wk =   0.0625000
        k(   36) = (  -0.4975124  -0.4975124  -0.5000000), wk =   0.0312500

     Dense  grid:   124599 G-vectors     FFT dimensions: (  64,  64,  64)

     Estimated max dynamical RAM per process >      84.16 MB

     Estimated total dynamical RAM >       1.23 GB

     Initial potential from superposition of free atoms

     starting charge     111.9934, renormalised to     112.0000
     Starting wfcs are   72 randomized atomic wfcs

     total cpu time spent up to now is        2.7 secs

     Self-consistent Calculation

     iteration #  1     ecut=    80.00 Ry     beta= 0.40
     Davidson diagonalization with overlap
     ethr =  1.00E-02,  avg # of iterations =  3.6

     Threshold (ethr) on eigenvalues was too large:
     Diagonalizing with lowered threshold

     Davidson diagonalization with overlap
     ethr =  1.01E-04,  avg # of iterations =  5.6

     total cpu time spent up to now is       14.4 secs

     total energy              =   -1429.14163912 Ry
     estimated scf accuracy    <       0.12485089 Ry

     iteration #  2     ecut=    80.00 Ry     beta= 0.40
     Davidson diagonalization with overlap
     ethr =  1.11E-04,  avg # of iterations =  1.0

     total cpu time spent up to now is       18.2 secs

     total energy              =   -1429.13692908 Ry
     estimated scf accuracy    <       0.03881501 Ry

     iteration #  3     ecut=    80.00 Ry     beta= 0.40
     Davidson diagonalization with overlap
     ethr =  3.47E-05,  avg # of iterations =  2.1

     total cpu time spent up to now is       22.5 secs

     total energy              =   -1429.13893697 Ry
     estimated scf accuracy    <       0.00044326 Ry

     iteration #  4     ecut=    80.00 Ry     beta= 0.40
     Davidson diagonalization with overlap
     c_bands:  1 eigenvalues not converged
     c_bands:  1 eigenvalues not converged
     ethr =  3.96E-07,  avg # of iterations =  9.6

     total cpu time spent up to now is       30.1 secs

     total energy              =   -1429.13903911 Ry
     estimated scf accuracy    <       0.00002835 Ry

     iteration #  5     ecut=    80.00 Ry     beta= 0.40
     Davidson diagonalization with overlap
     c_bands:  1 eigenvalues not converged
     ethr =  2.53E-08,  avg # of iterations =  3.1

     total cpu time spent up to now is       34.9 secs

     total energy              =   -1429.13903903 Ry
     estimated scf accuracy    <       0.00000334 Ry

     iteration #  6     ecut=    80.00 Ry     beta= 0.40
     Davidson diagonalization with overlap
     ethr =  2.98E-09,  avg # of iterations =  2.3

     total cpu time spent up to now is       40.2 secs

     total energy              =   -1429.13903988 Ry
     estimated scf accuracy    <       0.00000050 Ry

     iteration #  7     ecut=    80.00 Ry     beta= 0.40
     Davidson diagonalization with overlap
     ethr =  4.45E-10,  avg # of iterations =  2.0

     total cpu time spent up to now is       44.4 secs

     total energy              =   -1429.13903983 Ry
     estimated scf accuracy    <       0.00000014 Ry

     iteration #  8     ecut=    80.00 Ry     beta= 0.40
     Davidson diagonalization with overlap
     ethr =  1.23E-10,  avg # of iterations =  2.0

     total cpu time spent up to now is       49.7 secs

     total energy              =   -1429.13903987 Ry
     estimated scf accuracy    <       0.00000004 Ry

     iteration #  9     ecut=    80.00 Ry     beta= 0.40
     Davidson diagonalization with overlap
     ethr =  3.92E-11,  avg # of iterations =  1.1

     total cpu time spent up to now is       53.5 secs

     End of self-consistent calculation

          k = 0.0000 0.0000 0.0000 ( 15561 PWs)   bands (ev):

   -16.0092 -16.0057 -16.0057 -16.0057 -16.0057 -16.0022 -15.9807 -15.9758
   -15.9710 -15.9455 -15.9454 -15.9305 -15.9302 -15.9302 -15.9302 -15.9302
   -15.9301 -15.8497 -15.8474 -15.8474 -15.8474 -15.8474 -15.8450 -15.7984
   -15.7970 -15.7970 -15.7970 -15.7970 -15.7954 -15.7657 -15.7612 -15.7566
   -15.7537 -15.7537 -15.7178 -15.7149 -15.7149 -15.7149 -15.7149 -15.7119
    -3.5658   0.0661   0.1173   0.1173   0.1173   0.1173   0.1679   5.8744
     5.9196   5.9196   5.9196   5.9196   5.9653   8.3576   8.8041   8.8081
     8.8144   9.5710   9.6235   9.6235   9.6235   9.6235   9.6774  11.2656
    11.3407  11.4107  15.1152

          k = 0.0000 0.0000 0.2500 ( 15593 PWs)   bands (ev):

   -16.0122 -16.0122 -16.0122 -16.0122 -16.0055 -15.9982 -15.9854 -15.9822
   -15.9763 -15.9633 -15.9378 -15.9251 -15.9140 -15.9140 -15.9140 -15.9140
   -15.8862 -15.8844 -15.8487 -15.8487 -15.8487 -15.8487 -15.8403 -15.8110
   -15.8109 -15.8109 -15.8109 -15.8109 -15.7920 -15.7618 -15.7607 -15.7580
   -15.7495 -15.7395 -15.7243 -15.7180 -15.7093 -15.7093 -15.7093 -15.7093
    -3.3240  -1.4428   0.1576   0.1577   0.1577   0.1577   1.9879   5.4912
     5.4912   5.4912   5.4912   6.1275   6.2154   6.2786   7.9718   8.0237
     9.4519  10.4018  10.6934  10.7451  10.7451  10.7451  10.7451  10.7695
    12.4089  12.5025  16.1245

          k = 0.0000 0.0000-0.5000 ( 15610 PWs)   bands (ev):

   -16.0173 -16.0173 -16.0173 -16.0173 -15.9960 -15.9960 -15.9879 -15.9879
   -15.9809 -15.9808 -15.9162 -15.9162 -15.8942 -15.8942 -15.8942 -15.8942
   -15.8859 -15.8859 -15.8534 -15.8534 -15.8534 -15.8534 -15.8370 -15.8369
   -15.8255 -15.8255 -15.8255 -15.8255 -15.7807 -15.7807 -15.7414 -15.7414
   -15.7405 -15.7405 -15.7333 -15.7333 -15.7047 -15.7047 -15.7047 -15.7047
    -2.6071  -2.6071   0.1998   0.1998   0.1998   0.1998   4.0685   4.0685
     5.1553   5.1553   5.1553   5.1553   6.8633   6.8633   6.9407   6.9408
     9.8702   9.8702  11.4121  11.4121  12.9182  12.9182  12.9182  12.9183
    13.4885  13.4885  13.4885

          k =-0.0013 0.2500 0.0000 ( 15597 PWs)   bands (ev):

   -16.0152 -16.0137 -16.0107 -16.0091 -16.0020 -16.0018 -15.9856 -15.9808
   -15.9776 -15.9631 -15.9378 -15.9249 -15.9144 -15.9143 -15.9139 -15.9137
   -15.8860 -15.8843 -15.8511 -15.8497 -15.8477 -15.8463 -15.8405 -15.8122
   -15.8112 -15.8110 -15.8106 -15.8096 -15.7923 -15.7619 -15.7608 -15.7538
   -15.7538 -15.7391 -15.7212 -15.7211 -15.7121 -15.7107 -15.7079 -15.7066
    -3.3240  -1.4420   0.1064   0.1299   0.1854   0.2085   1.9879   5.4662
     5.4812   5.5009   5.5162   6.1710   6.1713   6.2797   7.9969   7.9976
     9.4536  10.3989  10.6730  10.7201  10.7321  10.7390  10.7585  10.8191
    12.4549  12.4593  16.0122

          k =-0.0013 0.2500 0.2500 ( 15596 PWs)   bands (ev):

   -16.0202 -16.0117 -16.0094 -16.0077 -16.0064 -16.0054 -15.9938 -15.9859
   -15.9697 -15.9446 -15.9445 -15.9292 -15.9284 -15.9194 -15.8853 -15.8853
   -15.8781 -15.8735 -15.8731 -15.8574 -15.8499 -15.8496 -15.8446 -15.8409
   -15.8125 -15.8125 -15.7978 -15.7911 -15.7820 -15.7811 -15.7811 -15.7562
   -15.7460 -15.7307 -15.7174 -15.7153 -15.7147 -15.7137 -15.7117 -15.7021
    -3.0886  -1.2845  -1.2837  -0.3446   0.6850   1.7904   1.7907   4.7499
     5.1387   5.5221   5.5222   6.1007   6.1007   6.3349   7.1867   8.4472
     9.9950  10.2946  10.6867  10.6933  11.2925  11.3011  11.8864  12.0018
    12.7833  13.4083  14.2348

          k =-0.0013 0.2500-0.5000 ( 15576 PWs)   bands (ev):

   -16.0190 -16.0190 -16.0098 -16.0098 -16.0030 -16.0030 -15.9966 -15.9966
   -15.9610 -15.9610 -15.9229 -15.9229 -15.9144 -15.9144 -15.8898 -15.8897
   -15.8814 -15.8814 -15.8589 -15.8588 -15.8545 -15.8545 -15.8284 -15.8284
   -15.8268 -15.8268 -15.8021 -15.8021 -15.7858 -15.7858 -15.7673 -15.7673
   -15.7301 -15.7301 -15.7222 -15.7222 -15.7124 -15.7124 -15.7040 -15.7040
    -2.3947  -2.3947  -0.8660  -0.8660   1.2781   1.2781   3.4727   3.4727
     4.7887   4.7887   6.1347   6.1347   6.2580   6.2580   7.2881   7.2881
    11.1364  11.1364  11.3798  11.3798  11.3928  11.3928  13.1966  13.1966
    13.4348  13.4351  13.6724

          k =-0.0013 0.2500-0.2500 ( 15596 PWs)   bands (ev):

   -16.0202 -16.0117 -16.0094 -16.0077 -16.0064 -16.0054 -15.9938 -15.9859
   -15.9697 -15.9446 -15.9445 -15.9292 -15.9284 -15.9194 -15.8853 -15.8853
   -15.8781 -15.8735 -15.8731 -15.8574 -15.8499 -15.8496 -15.8446 -15.8409
   -15.8125 -15.8125 -15.7978 -15.7911 -15.7820 -15.7811 -15.7811 -15.7562
   -15.7460 -15.7307 -15.7174 -15.7153 -15.7147 -15.7137 -15.7117 -15.7021
    -3.0886  -1.2845  -1.2837  -0.3446   0.6850   1.7904   1.7907   4.7499
     5.1387   5.5221   5.5222   6.1007   6.1007   6.3349   7.1867   8.4472
     9.9950  10.2946  10.6867  10.6933  11.2925  11.3011  11.8864  12.0018
    12.7833  13.4083  14.2349

          k = 0.0025-0.5000 0.0000 ( 15600 PWs)   bands (ev):

   -16.0197 -16.0197 -16.0150 -16.0150 -15.9928 -15.9928 -15.9919 -15.9919
   -15.9801 -15.9801 -15.9162 -15.9162 -15.8950 -15.8950 -15.8933 -15.8933
   -15.8856 -15.8856 -15.8560 -15.8560 -15.8508 -15.8508 -15.8373 -15.8373
   -15.8263 -15.8263 -15.8248 -15.8248 -15.7807 -15.7807 -15.7423 -15.7423
   -15.7369 -15.7369 -15.7359 -15.7359 -15.7070 -15.7070 -15.7024 -15.7024
    -2.6069  -2.6069   0.1536   0.1536   0.2460   0.2460   4.0693   4.0693
     5.1545   5.1545   5.1556   5.1556   6.9015   6.9015   6.9016   6.9016
     9.8704   9.8704  11.4102  11.4102  12.8454  12.8454  12.9878  12.9878
    13.4485  13.4485  13.5355

          k = 0.0025-0.5000 0.2500 ( 15588 PWs)   bands (ev):

   -16.0195 -16.0195 -16.0093 -16.0093 -16.0018 -16.0018 -15.9978 -15.9978
   -15.9610 -15.9610 -15.9229 -15.9229 -15.9144 -15.9144 -15.8896 -15.8896
   -15.8813 -15.8813 -15.8599 -15.8599 -15.8536 -15.8536 -15.8285 -15.8285
   -15.8267 -15.8267 -15.8021 -15.8021 -15.7858 -15.7858 -15.7673 -15.7673
   -15.7295 -15.7295 -15.7228 -15.7228 -15.7128 -15.7128 -15.7036 -15.7036
    -2.3945  -2.3945  -0.8666  -0.8666   1.2787   1.2787   3.4732   3.4732
     4.7889   4.7889   6.1339   6.1339   6.2574   6.2574   7.2891   7.2891
    11.1452  11.1452  11.3800  11.3800  11.3807  11.3807  13.1827  13.1827
    13.4339  13.6883  13.6903

          k = 0.0025-0.5000-0.5000 ( 15600 PWs)   bands (ev):

   -16.0120 -16.0120 -16.0120 -16.0120 -16.0041 -16.0041 -16.0041 -16.0041
   -15.9374 -15.9374 -15.9374 -15.9374 -15.9071 -15.9071 -15.9071 -15.9071
   -15.8840 -15.8840 -15.8840 -15.8840 -15.8215 -15.8215 -15.8215 -15.8215
   -15.8027 -15.8027 -15.8027 -15.8027 -15.7945 -15.7945 -15.7945 -15.7945
   -15.7186 -15.7186 -15.7186 -15.7186 -15.7131 -15.7131 -15.7131 -15.7131
    -1.7842  -1.7842  -1.7842  -1.7842   2.3780   2.3780   2.3780   2.3780
     5.1833   5.1833   5.1833   5.1833   7.3953   7.3953   7.3953   7.3953
    10.6580  10.6580  10.6580  10.6580  13.4715  13.4715  13.4715  13.4717
    13.7326  13.7327  13.7328

          k = 0.2500-0.0013 0.0000 ( 15597 PWs)   bands (ev):

   -16.0152 -16.0137 -16.0107 -16.0091 -16.0020 -16.0018 -15.9856 -15.9808
   -15.9776 -15.9631 -15.9378 -15.9249 -15.9144 -15.9143 -15.9139 -15.9137
   -15.8860 -15.8843 -15.8511 -15.8497 -15.8477 -15.8463 -15.8405 -15.8122
   -15.8112 -15.8110 -15.8106 -15.8096 -15.7923 -15.7619 -15.7608 -15.7538
   -15.7538 -15.7391 -15.7212 -15.7211 -15.7121 -15.7107 -15.7079 -15.7066
    -3.3240  -1.4420   0.1064   0.1299   0.1854   0.2085   1.9879   5.4662
     5.4812   5.5009   5.5162   6.1710   6.1713   6.2797   7.9969   7.9976
     9.4536  10.3989  10.6730  10.7201  10.7321  10.7390  10.7585  10.8191
    12.4549  12.4593  16.0126

          k = 0.2500-0.0013 0.2500 ( 15596 PWs)   bands (ev):

   -16.0202 -16.0117 -16.0094 -16.0077 -16.0064 -16.0054 -15.9938 -15.9859
   -15.9697 -15.9446 -15.9445 -15.9292 -15.9284 -15.9194 -15.8853 -15.8853
   -15.8781 -15.8735 -15.8731 -15.8574 -15.8499 -15.8496 -15.8446 -15.8409
   -15.8125 -15.8125 -15.7978 -15.7911 -15.7820 -15.7811 -15.7811 -15.7562
   -15.7460 -15.7307 -15.7174 -15.7153 -15.7147 -15.7137 -15.7117 -15.7021
    -3.0886  -1.2845  -1.2837  -0.3446   0.6850   1.7904   1.7907   4.7499
     5.1387   5.5221   5.5222   6.1007   6.1007   6.3349   7.1867   8.4472
     9.9950  10.2946  10.6867  10.6933  11.2925  11.3011  11.8864  12.0018
    12.7833  13.4083  14.2342

          k = 0.2500-0.0013-0.5000 ( 15576 PWs)   bands (ev):

   -16.0190 -16.0190 -16.0098 -16.0098 -16.0030 -16.0030 -15.9966 -15.9966
   -15.9610 -15.9610 -15.9229 -15.9229 -15.9144 -15.9144 -15.8898 -15.8897
   -15.8814 -15.8814 -15.8589 -15.8588 -15.8545 -15.8545 -15.8284 -15.8284
   -15.8268 -15.8268 -15.8021 -15.8021 -15.7858 -15.7858 -15.7673 -15.7673
   -15.7301 -15.7301 -15.7222 -15.7222 -15.7124 -15.7124 -15.7040 -15.7040
    -2.3947  -2.3947  -0.8660  -0.8660   1.2781   1.2781   3.4727   3.4727
     4.7887   4.7887   6.1347   6.1347   6.2580   6.2580   7.2881   7.2881
    11.1364  11.1364  11.3798  11.3798  11.3928  11.3928  13.1966  13.1966
    13.4348  13.4349  13.6724

          k = 0.2500-0.0013-0.2500 ( 15596 PWs)   bands (ev):

   -16.0202 -16.0117 -16.0094 -16.0077 -16.0064 -16.0054 -15.9938 -15.9859
   -15.9697 -15.9446 -15.9445 -15.9292 -15.9284 -15.9194 -15.8853 -15.8853
   -15.8781 -15.8735 -15.8731 -15.8574 -15.8499 -15.8496 -15.8446 -15.8409
   -15.8125 -15.8125 -15.7978 -15.7911 -15.7820 -15.7811 -15.7811 -15.7562
   -15.7460 -15.7307 -15.7174 -15.7153 -15.7147 -15.7137 -15.7117 -15.7021
    -3.0886  -1.2845  -1.2837  -0.3446   0.6850   1.7904   1.7907   4.7499
     5.1387   5.5221   5.5222   6.1007   6.1007   6.3349   7.1867   8.4472
     9.9950  10.2946  10.6867  10.6933  11.2925  11.3011  11.8864  12.0018
    12.7833  13.4083  14.2333

          k = 0.2488 0.2488 0.0000 ( 15608 PWs)   bands (ev):

   -16.0177 -16.0098 -16.0097 -16.0097 -16.0060 -16.0060 -15.9959 -15.9865
   -15.9659 -15.9461 -15.9461 -15.9300 -15.9281 -15.9210 -15.8842 -15.8842
   -15.8786 -15.8737 -15.8737 -15.8596 -15.8490 -15.8490 -15.8456 -15.8386
   -15.8136 -15.8136 -15.7962 -15.7884 -15.7832 -15.7803 -15.7803 -15.7580
   -15.7462 -15.7291 -15.7166 -15.7166 -15.7134 -15.7134 -15.7118 -15.7047
    -3.0960  -1.2615  -1.2615  -0.3963   0.7291   1.7630   1.7630   4.7440
     5.1404   5.5235   5.5235   6.1119   6.1119   6.3732   7.1632   8.4528
    10.0441  10.3722  10.6832  10.6832  11.2527  11.2527  11.9491  12.0118
    12.6763  13.3479  14.1620

          k = 0.2488 0.2488 0.2500 ( 15573 PWs)   bands (ev):

   -16.0146 -16.0146 -16.0129 -16.0061 -16.0025 -16.0024 -15.9953 -15.9904
   -15.9652 -15.9437 -15.9437 -15.9422 -15.9218 -15.9217 -15.8866 -15.8854
   -15.8854 -15.8714 -15.8697 -15.8697 -15.8508 -15.8508 -15.8503 -15.8136
   -15.8136 -15.8121 -15.7851 -15.7842 -15.7836 -15.7836 -15.7834 -15.7725
   -15.7349 -15.7312 -15.7201 -15.7201 -15.7172 -15.7104 -15.7086 -15.7086
    -2.8706  -1.2244  -1.1818  -1.1818   1.5425   1.5425   1.5743   4.1401
     5.3062   5.3091   5.3091   6.5453   6.5453   6.5902   7.9979   7.9998
     9.3333  10.2128  10.2128  10.2657  12.3339  12.4220  12.7565  12.8071
    12.8071  14.0872  14.1320

          k = 0.2488 0.2488-0.5000 ( 15572 PWs)   bands (ev):

   -16.0141 -16.0141 -16.0064 -16.0064 -16.0014 -16.0014 -15.9985 -15.9985
   -15.9588 -15.9588 -15.9339 -15.9339 -15.9127 -15.9127 -15.8986 -15.8986
   -15.8919 -15.8919 -15.8791 -15.8791 -15.8322 -15.8322 -15.8168 -15.8168
   -15.8141 -15.8141 -15.7953 -15.7953 -15.7878 -15.7878 -15.7716 -15.7716
   -15.7282 -15.7282 -15.7231 -15.7231 -15.7162 -15.7162 -15.7094 -15.7094
    -2.2164  -2.2164  -1.0919  -1.0919   1.3199   1.3199   2.7860   2.7860
     5.2973   5.2973   6.6197   6.6197   6.7373   6.7373   7.1960   7.1960
    10.3260  10.3260  11.0370  11.0370  11.9845  11.9845  12.2012  12.2012
    13.4815  13.4815  14.2748

          k = 0.2488 0.2488-0.2500 ( 15573 PWs)   bands (ev):

   -16.0146 -16.0146 -16.0129 -16.0061 -16.0025 -16.0024 -15.9953 -15.9904
   -15.9652 -15.9437 -15.9437 -15.9422 -15.9218 -15.9217 -15.8866 -15.8854
   -15.8854 -15.8714 -15.8697 -15.8697 -15.8508 -15.8508 -15.8503 -15.8136
   -15.8136 -15.8121 -15.7851 -15.7842 -15.7836 -15.7836 -15.7834 -15.7725
   -15.7349 -15.7312 -15.7201 -15.7201 -15.7172 -15.7104 -15.7086 -15.7086
    -2.8706  -1.2244  -1.1818  -1.1818   1.5425   1.5425   1.5743   4.1401
     5.3062   5.3091   5.3091   6.5453   6.5453   6.5902   7.9979   7.9998
     9.3333  10.2128  10.2128  10.2657  12.3339  12.4220  12.7565  12.8071
    12.8071  14.0873  14.1322

          k = 0.2525-0.5013 0.0000 ( 15598 PWs)   bands (ev):

   -16.0205 -16.0171 -16.0128 -16.0070 -16.0036 -15.9990 -15.9983 -15.9979
   -15.9643 -15.9579 -15.9244 -15.9215 -15.9156 -15.9132 -15.8909 -15.8881
   -15.8832 -15.8792 -15.8601 -15.8572 -15.8549 -15.8548 -15.8297 -15.8284
   -15.8276 -15.8253 -15.8029 -15.8012 -15.7872 -15.7843 -15.7695 -15.7649
   -15.7296 -15.7286 -15.7254 -15.7211 -15.7147 -15.7098 -15.7060 -15.7024
    -2.4094  -2.3795  -0.9074  -0.8240   1.2383   1.3170   3.4560   3.4898
     4.7880   4.7895   6.1203   6.1483   6.2460   6.2697   7.2879   7.2895
    11.1172  11.1817  11.3040  11.3145  11.4484  11.4537  13.1861  13.2078
    13.4268  13.4422  13.6341

          k = 0.2525-0.5013 0.2500 ( 15575 PWs)   bands (ev):

   -16.0168 -16.0151 -16.0073 -16.0058 -16.0031 -16.0021 -15.9946 -15.9946
   -15.9622 -15.9578 -15.9349 -15.9323 -15.9137 -15.9114 -15.8981 -15.8962
   -15.8934 -15.8901 -15.8806 -15.8794 -15.8323 -15.8315 -15.8185 -15.8169
   -15.8158 -15.8123 -15.7952 -15.7952 -15.7895 -15.7869 -15.7727 -15.7695
   -15.7319 -15.7311 -15.7222 -15.7192 -15.7191 -15.7159 -15.7086 -15.7066
    -2.2220  -2.1899  -1.1492  -1.0840   1.3183   1.3681   2.7855   2.8029
     5.2753   5.3004   6.6356   6.6529   6.7110   6.7151   7.1502   7.1805
    10.2617  10.3256  10.9849  11.0954  11.9885  12.0836  12.1923  12.2342
    13.4440  13.4486  14.4051

          k = 0.2525-0.5013-0.5000 ( 15552 PWs)   bands (ev):

   -16.0075 -16.0075 -16.0055 -16.0055 -16.0006 -16.0006 -16.0003 -16.0003
   -15.9486 -15.9486 -15.9466 -15.9466 -15.9088 -15.9088 -15.9080 -15.9080
   -15.8989 -15.8989 -15.8963 -15.8963 -15.8086 -15.8086 -15.8058 -15.8058
   -15.7956 -15.7956 -15.7943 -15.7943 -15.7920 -15.7920 -15.7900 -15.7900
   -15.7232 -15.7232 -15.7231 -15.7231 -15.7190 -15.7190 -15.7178 -15.7178
    -1.7211  -1.7211  -1.6794  -1.6794   1.8443   1.8443   1.8629   1.8629
     6.1337   6.1337   6.1684   6.1684   7.4228   7.4228   7.4563   7.4563
    10.0359  10.0359  10.0949  10.0949  12.5249  12.5249  12.5759  12.5759
    12.9195  12.9195  12.9199

          k = 0.2525-0.5013-0.2500 ( 15575 PWs)   bands (ev):

   -16.0168 -16.0151 -16.0073 -16.0058 -16.0031 -16.0021 -15.9946 -15.9946
   -15.9622 -15.9578 -15.9349 -15.9323 -15.9137 -15.9114 -15.8981 -15.8962
   -15.8934 -15.8901 -15.8806 -15.8794 -15.8323 -15.8315 -15.8185 -15.8169
   -15.8158 -15.8123 -15.7952 -15.7952 -15.7895 -15.7869 -15.7727 -15.7695
   -15.7319 -15.7311 -15.7222 -15.7192 -15.7191 -15.7159 -15.7086 -15.7066
    -2.2220  -2.1899  -1.1492  -1.0840   1.3183   1.3681   2.7855   2.8029
     5.2753   5.3004   6.6356   6.6529   6.7110   6.7151   7.1502   7.1805
    10.2617  10.3256  10.9849  11.0954  11.9885  12.0836  12.1923  12.2342
    13.4440  13.4486  14.2974

          k = 0.2513-0.2513 0.0000 ( 15578 PWs)   bands (ev):

   -16.0225 -16.0104 -16.0104 -16.0080 -16.0080 -16.0032 -15.9894 -15.9866
   -15.9745 -15.9430 -15.9430 -15.9290 -15.9286 -15.9176 -15.8863 -15.8863
   -15.8774 -15.8727 -15.8727 -15.8550 -15.8508 -15.8508 -15.8436 -15.8436
   -15.8115 -15.8115 -15.7992 -15.7940 -15.7818 -15.7818 -15.7809 -15.7537
   -15.7459 -15.7329 -15.7173 -15.7153 -15.7153 -15.7129 -15.7129 -15.6998
    -3.0811  -1.3059  -1.3059  -0.2915   0.6389   1.8177   1.8177   4.7557
     5.1375   5.5217   5.5217   6.0883   6.0883   6.2969   7.2094   8.4429
     9.9475  10.2243  10.7046  10.7046  11.3320  11.3320  11.8163  11.9892
    12.8922  13.4693  14.3097

          k = 0.2513-0.2513 0.2500 ( 15579 PWs)   bands (ev):

   -16.0179 -16.0165 -16.0165 -16.0026 -16.0026 -15.9992 -15.9932 -15.9882
   -15.9708 -15.9434 -15.9418 -15.9418 -15.9199 -15.9198 -15.8872 -15.8872
   -15.8860 -15.8678 -15.8678 -15.8659 -15.8539 -15.8532 -15.8532 -15.8130
   -15.8116 -15.8116 -15.7879 -15.7867 -15.7847 -15.7846 -15.7846 -15.7675
   -15.7359 -15.7322 -15.7230 -15.7204 -15.7204 -15.7070 -15.7070 -15.7055
    -2.8547  -1.2282  -1.2282  -1.1869   1.5611   1.5922   1.5922   4.1580
     5.2958   5.2958   5.2982   6.5174   6.5617   6.5617   7.9651   7.9654
     9.2773  10.1799  10.2312  10.2312  12.3195  12.4063  12.8922  12.8923
    12.9432  14.1131  14.1548

          k = 0.2513-0.2513-0.5000 ( 15582 PWs)   bands (ev):

   -16.0172 -16.0172 -16.0061 -16.0061 -16.0046 -16.0046 -15.9910 -15.9910
   -15.9612 -15.9612 -15.9332 -15.9332 -15.9124 -15.9124 -15.8960 -15.8960
   -15.8916 -15.8915 -15.8809 -15.8809 -15.8315 -15.8315 -15.8183 -15.8183
   -15.8139 -15.8139 -15.7952 -15.7952 -15.7886 -15.7886 -15.7707 -15.7707
   -15.7345 -15.7345 -15.7185 -15.7185 -15.7183 -15.7183 -15.7064 -15.7064
    -2.1959  -2.1959  -1.1410  -1.1410   1.3665   1.3665   2.8025   2.8025
     5.2787   5.2787   6.6690   6.6690   6.6874   6.6874   7.1356   7.1356
    10.2632  10.2632  11.0406  11.0406  12.0853  12.0853  12.2236  12.2236
    13.4128  13.4128  14.4582

          k = 0.2513-0.2513-0.2500 ( 15579 PWs)   bands (ev):

   -16.0179 -16.0165 -16.0165 -16.0026 -16.0026 -15.9992 -15.9932 -15.9882
   -15.9708 -15.9434 -15.9418 -15.9418 -15.9199 -15.9198 -15.8872 -15.8872
   -15.8860 -15.8678 -15.8678 -15.8659 -15.8539 -15.8532 -15.8532 -15.8130
   -15.8116 -15.8116 -15.7879 -15.7867 -15.7847 -15.7846 -15.7846 -15.7675
   -15.7359 -15.7322 -15.7230 -15.7204 -15.7204 -15.7070 -15.7070 -15.7055
    -2.8547  -1.2282  -1.2282  -1.1869   1.5611   1.5922   1.5922   4.1580
     5.2958   5.2958   5.2982   6.5174   6.5617   6.5617   7.9651   7.9654
     9.2773  10.1799  10.2312  10.2312  12.3195  12.4063  12.8923  12.8923
    12.9432  14.1131  14.1548

          k =-0.5000 0.0025 0.0000 ( 15600 PWs)   bands (ev):

   -16.0197 -16.0197 -16.0150 -16.0150 -15.9928 -15.9928 -15.9919 -15.9919
   -15.9801 -15.9801 -15.9162 -15.9162 -15.8950 -15.8950 -15.8933 -15.8933
   -15.8856 -15.8856 -15.8560 -15.8560 -15.8508 -15.8508 -15.8373 -15.8373
   -15.8263 -15.8263 -15.8248 -15.8248 -15.7807 -15.7807 -15.7423 -15.7423
   -15.7369 -15.7369 -15.7359 -15.7359 -15.7070 -15.7070 -15.7024 -15.7024
    -2.6069  -2.6069   0.1536   0.1536   0.2460   0.2460   4.0693   4.0693
     5.1545   5.1545   5.1556   5.1556   6.9015   6.9015   6.9016   6.9016
     9.8704   9.8704  11.4102  11.4102  12.8454  12.8454  12.9878  12.9878
    13.4485  13.4485  13.5355

          k =-0.5000 0.0025 0.2500 ( 15588 PWs)   bands (ev):

   -16.0195 -16.0195 -16.0093 -16.0093 -16.0018 -16.0018 -15.9978 -15.9978
   -15.9610 -15.9610 -15.9229 -15.9229 -15.9144 -15.9144 -15.8896 -15.8896
   -15.8813 -15.8813 -15.8599 -15.8599 -15.8536 -15.8536 -15.8285 -15.8285
   -15.8267 -15.8267 -15.8021 -15.8021 -15.7858 -15.7858 -15.7673 -15.7673
   -15.7295 -15.7295 -15.7228 -15.7228 -15.7128 -15.7128 -15.7036 -15.7036
    -2.3945  -2.3945  -0.8666  -0.8666   1.2787   1.2787   3.4732   3.4732
     4.7889   4.7889   6.1339   6.1339   6.2574   6.2574   7.2891   7.2891
    11.1452  11.1452  11.3800  11.3800  11.3807  11.3807  13.1826  13.1827
    13.4339  13.4339  13.6903

          k =-0.5000 0.0025-0.5000 ( 15600 PWs)   bands (ev):

   -16.0120 -16.0120 -16.0120 -16.0120 -16.0041 -16.0041 -16.0041 -16.0041
   -15.9374 -15.9374 -15.9374 -15.9374 -15.9071 -15.9071 -15.9071 -15.9071
   -15.8840 -15.8840 -15.8840 -15.8840 -15.8215 -15.8215 -15.8215 -15.8215
   -15.8027 -15.8027 -15.8027 -15.8027 -15.7945 -15.7945 -15.7945 -15.7945
   -15.7186 -15.7186 -15.7186 -15.7186 -15.7131 -15.7131 -15.7131 -15.7131
    -1.7842  -1.7842  -1.7842  -1.7842   2.3780   2.3780   2.3780   2.3780
     5.1833   5.1833   5.1833   5.1833   7.3953   7.3953   7.3953   7.3953
    10.6580  10.6580  10.6580  10.6580  13.4715  13.4715  13.4716  13.4721
    13.7327  13.7329  13.7336

          k =-0.5013 0.2525 0.0000 ( 15598 PWs)   bands (ev):

   -16.0205 -16.0171 -16.0128 -16.0070 -16.0036 -15.9990 -15.9983 -15.9979
   -15.9643 -15.9579 -15.9244 -15.9215 -15.9156 -15.9132 -15.8909 -15.8881
   -15.8832 -15.8792 -15.8601 -15.8572 -15.8549 -15.8548 -15.8297 -15.8284
   -15.8276 -15.8253 -15.8029 -15.8012 -15.7872 -15.7843 -15.7695 -15.7649
   -15.7296 -15.7286 -15.7254 -15.7211 -15.7147 -15.7098 -15.7060 -15.7024
    -2.4094  -2.3795  -0.9074  -0.8240   1.2383   1.3170   3.4560   3.4898
     4.7880   4.7895   6.1203   6.1483   6.2460   6.2697   7.2879   7.2895
    11.1172  11.1817  11.3040  11.3145  11.4484  11.4537  13.1861  13.2078
    13.4415  13.6340  13.7121

          k =-0.5013 0.2525 0.2500 ( 15575 PWs)   bands (ev):

   -16.0168 -16.0151 -16.0073 -16.0058 -16.0031 -16.0021 -15.9946 -15.9946
   -15.9622 -15.9578 -15.9349 -15.9323 -15.9137 -15.9114 -15.8981 -15.8962
   -15.8934 -15.8901 -15.8806 -15.8794 -15.8323 -15.8315 -15.8185 -15.8169
   -15.8158 -15.8123 -15.7952 -15.7952 -15.7895 -15.7869 -15.7727 -15.7695
   -15.7319 -15.7311 -15.7222 -15.7192 -15.7191 -15.7159 -15.7086 -15.7066
    -2.2220  -2.1899  -1.1492  -1.0840   1.3183   1.3681   2.7855   2.8029
     5.2753   5.3004   6.6356   6.6529   6.7110   6.7151   7.1502   7.1805
    10.2617  10.3256  10.9849  11.0954  11.9885  12.0836  12.1923  12.2342
    13.4440  13.4486  14.4065

          k =-0.5013 0.2525-0.5000 ( 15552 PWs)   bands (ev):

   -16.0075 -16.0075 -16.0055 -16.0055 -16.0006 -16.0006 -16.0003 -16.0003
   -15.9486 -15.9486 -15.9466 -15.9466 -15.9088 -15.9088 -15.9080 -15.9080
   -15.8989 -15.8989 -15.8963 -15.8963 -15.8086 -15.8086 -15.8058 -15.8058
   -15.7956 -15.7956 -15.7943 -15.7943 -15.7920 -15.7920 -15.7900 -15.7900
   -15.7232 -15.7232 -15.7231 -15.7231 -15.7190 -15.7190 -15.7178 -15.7178
    -1.7211  -1.7211  -1.6794  -1.6794   1.8443   1.8443   1.8629   1.8629
     6.1337   6.1337   6.1684   6.1684   7.4228   7.4228   7.4563   7.4563
    10.0359  10.0359  10.0949  10.0949  12.5249  12.5249  12.5759  12.5759
    12.9195  12.9197  12.9199

          k =-0.5013 0.2525-0.2500 ( 15575 PWs)   bands (ev):

   -16.0168 -16.0151 -16.0073 -16.0058 -16.0031 -16.0021 -15.9946 -15.9946
   -15.9622 -15.9578 -15.9349 -15.9323 -15.9137 -15.9114 -15.8981 -15.8962
   -15.8934 -15.8901 -15.8806 -15.8794 -15.8323 -15.8315 -15.8185 -15.8169
   -15.8158 -15.8123 -15.7952 -15.7952 -15.7895 -15.7869 -15.7727 -15.7695
   -15.7319 -15.7311 -15.7222 -15.7192 -15.7191 -15.7159 -15.7086 -15.7066
    -2.2220  -2.1899  -1.1492  -1.0840   1.3183   1.3681   2.7855   2.8029
     5.2753   5.3004   6.6356   6.6529   6.7110   6.7151   7.1502   7.1805
    10.2617  10.3256  10.9849  11.0954  11.9885  12.0836  12.1923  12.2342
    13.4440  13.4486  14.4032

          k =-0.4975-0.4975 0.0000 ( 15588 PWs)   bands (ev):

   -16.0122 -16.0122 -16.0103 -16.0103 -16.0079 -16.0078 -16.0018 -16.0018
   -15.9405 -15.9405 -15.9345 -15.9345 -15.9088 -15.9088 -15.9053 -15.9053
   -15.8861 -15.8861 -15.8816 -15.8816 -15.8244 -15.8244 -15.8189 -15.8189
   -15.8060 -15.8060 -15.7995 -15.7995 -15.7967 -15.7967 -15.7923 -15.7923
   -15.7199 -15.7199 -15.7153 -15.7153 -15.7153 -15.7153 -15.7129 -15.7129
    -1.8134  -1.8133  -1.7544  -1.7544   2.3497   2.3497   2.4053   2.4053
     5.1763   5.1763   5.1902   5.1902   7.3763   7.3763   7.4151   7.4151
    10.6101  10.6101  10.7095  10.7095  13.4287  13.4287  13.5249  13.5249
    13.7166  13.7465  13.7570

          k =-0.4975-0.4975 0.2500 ( 15560 PWs)   bands (ev):

   -16.0066 -16.0066 -16.0046 -16.0046 -16.0045 -16.0045 -15.9981 -15.9981
   -15.9504 -15.9504 -15.9450 -15.9450 -15.9103 -15.9103 -15.9064 -15.9063
   -15.8986 -15.8986 -15.8966 -15.8966 -15.8086 -15.8086 -15.8057 -15.8057
   -15.7968 -15.7968 -15.7949 -15.7949 -15.7914 -15.7914 -15.7887 -15.7887
   -15.7243 -15.7243 -15.7210 -15.7210 -15.7193 -15.7193 -15.7184 -15.7184
    -1.7308  -1.7308  -1.6694  -1.6694   1.8328   1.8328   1.8739   1.8739
     6.1429   6.1429   6.1587   6.1587   7.4213   7.4213   7.4587   7.4587
    10.0140  10.0140  10.1190  10.1190  12.5452  12.5452  12.5546  12.5546
    12.8673  12.8673  12.9717

          k =-0.4975-0.4975-0.5000 ( 15440 PWs)   bands (ev):

   -16.0009 -16.0009 -15.9985 -15.9985 -15.9961 -15.9961 -15.9938 -15.9938
   -15.9624 -15.9624 -15.9579 -15.9579 -15.9112 -15.9112 -15.9093 -15.9093
   -15.9089 -15.9089 -15.9070 -15.9070 -15.7967 -15.7967 -15.7952 -15.7951
   -15.7939 -15.7939 -15.7925 -15.7925 -15.7808 -15.7808 -15.7771 -15.7771
   -15.7298 -15.7298 -15.7286 -15.7286 -15.7255 -15.7255 -15.7241 -15.7241
    -1.6380  -1.6379  -1.5733  -1.5733   1.4282   1.4282   1.4646   1.4646
     7.4591   7.4591   7.4686   7.4686   7.5043   7.5044   7.5124   7.5124
     8.7966   8.7966   8.8694   8.8694  12.4664  12.4675  12.4957  12.4968
    12.5456  12.5525  12.5754

     the Fermi energy is     8.7655 ev

!    total energy              =   -1429.13903987 Ry
     estimated scf accuracy    <          5.4E-09 Ry
     smearing contrib. (-TS)   =      -0.00050898 Ry
     internal energy E=F+TS    =   -1429.13853089 Ry

     The total energy is F=E-TS. E is the sum of the following terms:
     one-electron contribution =    -755.55643902 Ry
     hartree contribution      =     451.46179795 Ry
     xc contribution           =    -349.06326787 Ry
     ewald contribution        =    -775.98062195 Ry

     convergence has been achieved in   9 iterations

     Forces acting on atoms (cartesian axes, Ry/au):

     atom    1 type  1   force =     0.00000113   -0.00000215    0.00311622
     atom    2 type  1   force =    -0.00000002   -0.00000143    0.00311816
     atom    3 type  1   force =    -0.00000005   -0.00000216    0.00311706
     atom    4 type  1   force =    -0.00000374    0.00000232    0.00311934
     atom    5 type  1   force =     0.00000198    0.00000265   -0.00311754
     atom    6 type  1   force =     0.00000013    0.00000155   -0.00311698
     atom    7 type  1   force =     0.00000053    0.00000084   -0.00311675
     atom    8 type  1   force =     0.00000005   -0.00000162   -0.00311953
     The non-local contrib.  to forces
     atom    1 type  1   force =     0.00000023   -0.00000161   -0.00145863
     atom    2 type  1   force =     0.00000017   -0.00000036   -0.00145806
     atom    3 type  1   force =     0.00000026   -0.00000177   -0.00146101
     atom    4 type  1   force =    -0.00000300    0.00000169   -0.00145998
     atom    5 type  1   force =     0.00000083    0.00000152    0.00146011
     atom    6 type  1   force =    -0.00000032    0.00000014    0.00146048
     atom    7 type  1   force =    -0.00000008    0.00000054    0.00145970
     atom    8 type  1   force =    -0.00000009   -0.00000170    0.00145889
     The ionic contribution  to forces
     atom    1 type  1   force =     0.00000000    0.00000000    0.33277850
     atom    2 type  1   force =    -0.00000000   -0.00000000    0.33277850
     atom    3 type  1   force =    -0.00000000    0.00000000    0.33277850
     atom    4 type  1   force =     0.00000000   -0.00000000    0.33277850
     atom    5 type  1   force =    -0.00000000   -0.00000000   -0.33277850
     atom    6 type  1   force =     0.00000000    0.00000000   -0.33277850
     atom    7 type  1   force =     0.00000000   -0.00000000   -0.33277850
     atom    8 type  1   force =    -0.00000000    0.00000000   -0.33277850
     The local contribution  to forces
     atom    1 type  1   force =    -0.00000365    0.00000141   -0.32833824
     atom    2 type  1   force =     0.00000489    0.00000605   -0.32834415
     atom    3 type  1   force =     0.00000431    0.00000246   -0.32836120
     atom    4 type  1   force =     0.00000076   -0.00000186   -0.32836819
     atom    5 type  1   force =    -0.00000458   -0.00000006    0.32835210
     atom    6 type  1   force =     0.00000010   -0.00000661    0.32834942
     atom    7 type  1   force =    -0.00000154    0.00000318    0.32834568
     atom    8 type  1   force =     0.00000220   -0.00000131    0.32835435
     The core correction contribution to forces
     atom    1 type  1   force =    -0.00000022    0.00000013    0.00020031
     atom    2 type  1   force =     0.00000022    0.00000017    0.00020009
     atom    3 type  1   force =     0.00000023    0.00000015    0.00019929
     atom    4 type  1   force =     0.00000015   -0.00000006    0.00019905
     atom    5 type  1   force =    -0.00000012   -0.00000007   -0.00019982
     atom    6 type  1   force =    -0.00000002   -0.00000027   -0.00019984
     atom    7 type  1   force =    -0.00000004    0.00000012   -0.00020001
     atom    8 type  1   force =     0.00000001   -0.00000000   -0.00019964
     The Hubbard contrib.    to forces
     atom    1 type  1   force =     0.00000000    0.00000000    0.00000000
     atom    2 type  1   force =     0.00000000    0.00000000    0.00000000
     atom    3 type  1   force =     0.00000000    0.00000000    0.00000000
     atom    4 type  1   force =     0.00000000    0.00000000    0.00000000
     atom    5 type  1   force =     0.00000000    0.00000000    0.00000000
     atom    6 type  1   force =     0.00000000    0.00000000    0.00000000
     atom    7 type  1   force =     0.00000000    0.00000000    0.00000000
     atom    8 type  1   force =     0.00000000    0.00000000    0.00000000
     The SCF correction term to forces
     atom    1 type  1   force =     0.00000446   -0.00000237   -0.00006519
     atom    2 type  1   force =    -0.00000562   -0.00000758   -0.00005768
     atom    3 type  1   force =    -0.00000517   -0.00000328   -0.00003799
     atom    4 type  1   force =    -0.00000196    0.00000226   -0.00002951
     atom    5 type  1   force =     0.00000553    0.00000098    0.00004908
     atom    6 type  1   force =     0.00000007    0.00000800    0.00005198
     atom    7 type  1   force =     0.00000188   -0.00000328    0.00005690
     atom    8 type  1   force =    -0.00000238    0.00000111    0.00004590

     Total force =     0.008818     Total SCF correction =     0.000144


     Computing stress (Cartesian axis) and pressure

          total   stress  (Ry/bohr**3)                   (kbar)     P=        2.39
   0.00001637  -0.00004615  -0.00000000            2.41       -6.79       -0.00
  -0.00004615   0.00001637  -0.00000000           -6.79        2.41       -0.00
  -0.00000000  -0.00000000   0.00001602           -0.00       -0.00        2.36


     Writing all to output data dir ./Ge_out/Ge_scf.save/

     init_run     :      2.46s CPU      2.57s WALL (       1 calls)
     electrons    :     48.80s CPU     50.87s WALL (       1 calls)
     forces       :      1.03s CPU      1.05s WALL (       1 calls)
     stress       :     15.27s CPU     15.48s WALL (       1 calls)

     Called by init_run:
     wfcinit      :      1.61s CPU      1.70s WALL (       1 calls)
     potinit      :      0.31s CPU      0.32s WALL (       1 calls)
     hinit0       :      0.51s CPU      0.52s WALL (       1 calls)

     Called by electrons:
     c_bands      :     43.12s CPU     44.87s WALL (      10 calls)
     sum_band     :      5.19s CPU      5.39s WALL (      10 calls)
     v_of_rho     :      0.42s CPU      0.44s WALL (      10 calls)
     mix_rho      :      0.06s CPU      0.06s WALL (      10 calls)

     Called by c_bands:
     init_us_2    :      0.78s CPU      0.79s WALL (     207 calls)
     init_us_2:cp :      0.78s CPU      0.79s WALL (     207 calls)
     cegterg      :     38.58s CPU     40.20s WALL (      90 calls)

     Called by *egterg:
     cdiaghg      :      2.60s CPU      2.62s WALL (     400 calls)
     h_psi        :     27.94s CPU     29.22s WALL (     418 calls)
     g_psi        :      0.31s CPU      0.31s WALL (     319 calls)

     Called by h_psi:
     h_psi:calbec :      2.79s CPU      2.83s WALL (     418 calls)
     vloc_psi     :     22.19s CPU     23.15s WALL (     418 calls)
     add_vuspsi   :      2.69s CPU      2.71s WALL (     418 calls)

     General routines
     calbec       :      3.30s CPU      3.34s WALL (     463 calls)
     fft          :      0.42s CPU      0.44s WALL (     125 calls)
     ffts         :      0.01s CPU      0.01s WALL (      10 calls)
     fftw         :     22.28s CPU     23.24s WALL (   37134 calls)

     Parallel routines

     PWSCF        :   1m 7.71s CPU   1m13.36s WALL


   This run was terminated on:  11:12:27   8May2026            

=------------------------------------------------------------------------------=
   JOB DONE.
=------------------------------------------------------------------------------=
