&CONTROL
   calculation      = 'relax'
   restart_mode     = 'from_scratch'
   tstress          = .false.
   tprnfor          = .true.
   outdir           = './out'
   prefix           = 'ge'
   pseudo_dir       = './'
   nstep            = 100
/
&SYSTEM
   ibrav            = 0
   ecutwfc          = 60.0
   occupations      = 'smearing'
   degauss          = 0.01
   smearing         = 'gaussian'
   ntyp             = 1
   nat              = 64
/
&ELECTRONS
   mixing_beta      = 0.4
/
&IONS
   ion_dynamics     = 'bfgs'
/
&CELL
/
&FCP
/
&RISM
/
ATOMIC_SPECIES
Ge 72.63 Ge.upf

K_POINTS automatic
1 2 1  0 0 0

CELL_PARAMETERS angstrom
16.32002450978552 0.00000000000000 0.00000000000000
0.00000000000000 8.16001225489276 0.00000000000000
0.00000000000000 0.00000000000000 20.09750000000000

ATOMIC_POSITIONS angstrom
Ge 0.0018594505 -0.0008421144 5.0172505869  
Ge 2.0295649918 0.0006038700 6.4285826177  
Ge 2.0237297855 2.0278644942 7.8811024619  
Ge 0.0118914557 2.0575192679 9.3260231588  
Ge 0.0110376286 -0.0076343345 10.7671326212  
Ge 2.0559058789 -0.0067034366 12.1953799202  
Ge 2.0264651669 2.0279216549 13.6588511406  
Ge -0.0101303168 2.0310850231 15.0785495888  
Ge -0.0143744282 4.0915902364 5.0106623079  
Ge 2.0274998825 4.0673953364 6.4530058088  
Ge 2.0561076705 6.1222946579 7.8795682294  
Ge 0.0024861290 6.1247296754 9.3185150670  
Ge 0.0125617094 4.0845318169 10.7748218468  
Ge 2.0313292561 4.0796215135 12.2305349776  
Ge 2.0493717578 6.1306074448 13.6676929682  
Ge 0.0178812193 6.1175392208 15.0831154461  
Ge 4.0989502791 0.0115481237 4.9870325788  
Ge 6.1345080322 -0.0046795637 6.4549359838  
Ge 6.1399827217 2.0278699347 7.8836793467  
Ge 4.0690156131 2.0497734666 9.3345376699  
Ge 4.0669836038 0.0088485371 10.7631243920  
Ge 6.1338136833 -0.0048369227 12.2148057270  
Ge 6.1334718173 2.0244597530 13.6550528641  
Ge 4.0946443810 2.0275507815 15.1143551570  
Ge 4.0915221726 4.0898106432 4.9878623254  
Ge 6.1201455971 4.0752562098 6.4602125248  
Ge 6.1336143306 6.1072229106 7.8978879936  
Ge 4.0818021932 6.1319183042 9.3320804573  
Ge 4.0964438535 4.0671751419 10.7759125009  
Ge 6.1391925470 4.0809239943 12.2324151261  
Ge 6.1237752160 6.1052696791 13.6745974276  
Ge 4.0778266377 6.1093501049 15.0776260210  
Ge 8.1745030638 -0.0052388125 5.0057093329  
Ge 10.2112991836 -0.0112353812 6.4328395694  
Ge 10.1991457214 2.0404545271 7.9012545379  
Ge 8.1480845722 2.0368484378 9.3139328904  
Ge 8.1449200809 0.0198874482 10.7752134415  
Ge 10.2026184665 0.0111101714 12.2136339383  
Ge 10.1885227465 2.0340133423 13.6407273625  
Ge 8.1421270930 2.0359194114 15.0960616600  
Ge 8.1444606738 4.0816216291 5.0158212148  
Ge 10.1891176728 4.0780832501 6.4343616725  
Ge 10.1876913631 6.1319135082 7.8991465855  
Ge 8.1497285575 6.1051656550 9.3216375298  
Ge 8.1466490734 4.0921439103 10.7653051503  
Ge 10.1946551297 4.0642408294 12.2053925080  
Ge 10.2177247622 6.1202774840 13.6423847392  
Ge 8.1425275824 6.1360571570 15.1080665203  
Ge 12.2437731443 -0.0071899568 4.9907294867  
Ge 14.2695274124 -0.0073404030 6.4294812690  
Ge 14.2882444741 2.0269691557 7.8697419550  
Ge 12.2351679944 2.0551437588 9.3408430365  
Ge 12.2220846663 -0.0001630921 10.7564623269  
Ge 14.2822151787 0.0037965263 12.2099844107  
Ge 14.2815239835 2.0300838978 13.6439086039  
Ge 12.2395079740 2.0541288622 15.1004507162  
Ge 12.2219272114 4.0885227261 5.0017195854  
Ge 14.2640347910 4.0794641515 6.4299820006  
Ge 14.2914869935 6.1040274680 7.8944624715  
Ge 12.2241320910 6.1058422727 9.3136684224  
Ge 12.2394796432 4.0757015660 10.7782810296  
Ge 14.2644245389 4.0970815349 12.2116764914  
Ge 14.2612708548 6.1030920120 13.6665219136  
Ge 12.2300503059 6.1307668103 15.1078764016  

