&CONTROL
   calculation      = 'scf'
   restart_mode     = 'from_scratch'
   tprnfor          = .true.
   outdir           = './out'
   prefix           = 'scf_efield'
   disk_io          = 'none'
   pseudo_dir       = './'
/
&SYSTEM
   ibrav            = 0
   nat              = 162
   ntyp             = 2
   ecutwfc          = 60.0
/
&ELECTRONS
   conv_thr         = 1e-08
   mixing_beta      = 0.7
   diagonalization  = 'david'
/

K_POINTS automatic
3 2 2  0 0 0

!    ibrav = 0, nat = 162, ntyp = 2
CELL_PARAMETERS bohr
   16.4683195548486410    0.0000000000000000    0.0000000000000000
    0.0000000000000000   25.3543448995358460    0.0000000000000000
    0.0000000000000000    0.0000000000000000   25.3543448995358460
ATOMIC_SPECIES
 Ge   72.64000   Ge.upf
  O   15.99940   O.upf
ATOMIC_POSITIONS crystal
 Ge   0.1668459180334412  0.1667383780477605  0.1667383780477605
 Ge   0.5001792513667744  0.1667383780477605  0.1667383780477605
 Ge   0.8335125847001078  0.1667383780477605  0.1667383780477605
 Ge   0.1668459180334412  0.5000717113810939  0.1667383780477605
 Ge   0.5001792513667744  0.5000717113810939  0.1667383780477605
 Ge   0.8335125847001078  0.5000717113810939  0.1667383780477605
 Ge   0.1668459180334412  0.8334050447144272  0.1667383780477605
 Ge   0.5001792513667744  0.8334050447144272  0.1667383780477605
 Ge   0.8335125847001078  0.8334050447144272  0.1667383780477605
 Ge   0.1668459180334412  0.1667383780477605  0.5000717113810939
 Ge   0.5001792513667744  0.1667383780477605  0.5000717113810939
 Ge   0.8335125847001078  0.1667383780477605  0.5000717113810939
 Ge   0.1668459180334412  0.5000717113810939  0.5000717113810939
 Ge   0.5001792513667744  0.5000717113810939  0.5000717113810939
 Ge   0.8335125847001078  0.5000717113810939  0.5000717113810939
 Ge   0.1668459180334412  0.8334050447144272  0.5000717113810939
 Ge   0.5001792513667744  0.8334050447144272  0.5000717113810939
 Ge   0.8335125847001078  0.8334050447144272  0.5000717113810939
 Ge   0.1668459180334412  0.1667383780477605  0.8334050447144272
 Ge   0.5001792513667744  0.1667383780477605  0.8334050447144272
 Ge   0.8335125847001078  0.1667383780477605  0.8334050447144272
 Ge   0.1668459180334412  0.5000717113810939  0.8334050447144272
 Ge   0.5001792513667744  0.5000717113810939  0.8334050447144272
 Ge   0.8335125847001078  0.5000717113810939  0.8334050447144272
 Ge   0.1668459180334412  0.8334050447144272  0.8334050447144272
 Ge   0.5001792513667744  0.8334050447144272  0.8334050447144272
 Ge   0.8335125847001078  0.8334050447144272  0.8334050447144272
 Ge   0.0002010580366973  0.0000721353003626  0.0000721353003626
 Ge   0.3335343913700307  0.0000721353003626  0.0000721353003626
 Ge   0.6668677247033640  0.0000721353003626  0.0000721353003626
 Ge   0.0002010580366973  0.3334054686336959  0.0000721353003626
 Ge   0.3335343913700307  0.3334054686336959  0.0000721353003626
 Ge   0.6668677247033640  0.3334054686336959  0.0000721353003626
 Ge   0.0002010580366973  0.6667388019670293  0.0000721353003626
 Ge   0.3335343913700307  0.6667388019670293  0.0000721353003626
 Ge   0.6668677247033640  0.6667388019670293  0.0000721353003626
 Ge   0.0002010580366973  0.0000721353003626  0.3334054686336959
 Ge   0.3335343913700307  0.0000721353003626  0.3334054686336959
 Ge   0.6668677247033640  0.0000721353003626  0.3334054686336959
 Ge   0.0002010580366973  0.3334054686336959  0.3334054686336959
 Ge   0.3335343913700307  0.3334054686336959  0.3334054686336959
 Ge   0.6668677247033640  0.3334054686336959  0.3334054686336959
 Ge   0.0002010580366973  0.6667388019670293  0.3334054686336959
 Ge   0.3335343913700307  0.6667388019670293  0.3334054686336959
 Ge   0.6668677247033640  0.6667388019670293  0.3334054686336959
 Ge   0.0002010580366973  0.0000721353003626  0.6667388019670293
 Ge   0.3335343913700307  0.0000721353003626  0.6667388019670293
 Ge   0.6668677247033640  0.0000721353003626  0.6667388019670293
 Ge   0.0002010580366973  0.3334054686336959  0.6667388019670293
 Ge   0.3335343913700307  0.3334054686336959  0.6667388019670293
 Ge   0.6668677247033640  0.3334054686336959  0.6667388019670293
 Ge   0.0002010580366973  0.6667388019670293  0.6667388019670293
 Ge   0.3335343913700307  0.6667388019670293  0.6667388019670293
 Ge   0.6668677247033640  0.6667388019670293  0.6667388019670293
  O   0.0014019714889112  0.2311050890456187  0.2311050890456187
  O   0.3335208518276090  0.2311050890456187  0.2311050890456187
  O   0.6668541851609425  0.2311050890456187  0.2311050890456187
  O   0.0001875184942757  0.5644384223789520  0.2311050890456187
  O   0.3335208518276090  0.5644384223789520  0.2311050890456187
  O   0.6668541851609425  0.5644384223789520  0.2311050890456187
  O   0.0001875184942757  0.8977717557122853  0.2311050890456187
  O   0.3335208518276090  0.8977717557122853  0.2311050890456187
  O   0.6668541851609425  0.8977717557122853  0.2311050890456187
  O   0.0001875184942757  0.2311050890456187  0.5644384223789520
  O   0.3335208518276090  0.2311050890456187  0.5644384223789520
  O   0.6668541851609425  0.2311050890456187  0.5644384223789520
  O   0.0001875184942757  0.5644384223789520  0.5644384223789520
  O   0.3335208518276090  0.5644384223789520  0.5644384223789520
  O   0.6668541851609425  0.5644384223789520  0.5644384223789520
  O   0.0001875184942757  0.8977717557122853  0.5644384223789520
  O   0.3335208518276090  0.8977717557122853  0.5644384223789520
  O   0.6668541851609425  0.8977717557122853  0.5644384223789520
  O   0.0001875184942757  0.2311050890456187  0.8977717557122853
  O   0.3335208518276090  0.2311050890456187  0.8977717557122853
  O   0.6668541851609425  0.2311050890456187  0.8977717557122853
  O   0.0001875184942757  0.5644384223789520  0.8977717557122853
  O   0.3335208518276090  0.5644384223789520  0.8977717557122853
  O   0.6668541851609425  0.5644384223789520  0.8977717557122853
  O   0.0001875184942757  0.8977717557122853  0.8977717557122853
  O   0.3335208518276090  0.8977717557122853  0.8977717557122853
  O   0.6668541851609425  0.8977717557122853  0.8977717557122853
  O   0.1668564591454089  0.2690515524148040  0.0644474090098193
  O   0.5001897924787423  0.2690515524148040  0.0644474090098193
  O   0.8335231258120755  0.2690515524148040  0.0644474090098193
  O   0.1668564591454089  0.6023848857481373  0.0644474090098193
  O   0.5001897924787423  0.6023848857481373  0.0644474090098193
  O   0.8335231258120755  0.6023848857481373  0.0644474090098193
  O   0.1668564591454089  0.9357182190814706  0.0644474090098193
  O   0.5001897924787423  0.9357182190814706  0.0644474090098193
  O   0.8335231258120755  0.9357182190814706  0.0644474090098193
  O   0.1668564591454089  0.2690515524148040  0.3977807423431526
  O   0.5001897924787423  0.2690515524148040  0.3977807423431526
  O   0.8335231258120755  0.2690515524148040  0.3977807423431526
  O   0.1668564591454089  0.6023848857481373  0.3977807423431526
  O   0.5001897924787423  0.6023848857481373  0.3977807423431526
  O   0.8335231258120755  0.6023848857481373  0.3977807423431526
  O   0.1668564591454089  0.9357182190814706  0.3977807423431526
  O   0.5001897924787423  0.9357182190814706  0.3977807423431526
  O   0.8335231258120755  0.9357182190814706  0.3977807423431526
  O   0.1668564591454089  0.2690515524148040  0.7311140756764859
  O   0.5001897924787423  0.2690515524148040  0.7311140756764859
  O   0.8335231258120755  0.2690515524148040  0.7311140756764859
  O   0.1668564591454089  0.6023848857481373  0.7311140756764859
  O   0.5001897924787423  0.6023848857481373  0.7311140756764859
  O   0.8335231258120755  0.6023848857481373  0.7311140756764859
  O   0.1668564591454089  0.9357182190814706  0.7311140756764859
  O   0.5001897924787423  0.9357182190814706  0.7311140756764859
  O   0.8335231258120755  0.9357182190814706  0.7311140756764859
  O   0.0001875381163852  0.1023768439749387  0.1023768439749387
  O   0.3335208714497185  0.1023768439749387  0.1023768439749387
  O   0.6668542047830518  0.1023768439749387  0.1023768439749387
  O   0.0001875381163852  0.4357101773082719  0.1023768439749387
  O   0.3335208714497185  0.4357101773082719  0.1023768439749387
  O   0.6668542047830518  0.4357101773082719  0.1023768439749387
  O   0.0001875381163852  0.7690435106416054  0.1023768439749387
  O   0.3335208714497185  0.7690435106416054  0.1023768439749387
  O   0.6668542047830518  0.7690435106416054  0.1023768439749387
  O   0.0001875381163852  0.1023768439749387  0.4357101773082719
  O   0.3335208714497185  0.1023768439749387  0.4357101773082719
  O   0.6668542047830518  0.1023768439749387  0.4357101773082719
  O   0.0001875381163852  0.4357101773082719  0.4357101773082719
  O   0.3335208714497185  0.4357101773082719  0.4357101773082719
  O   0.6668542047830518  0.4357101773082719  0.4357101773082719
  O   0.0001875381163852  0.7690435106416054  0.4357101773082719
  O   0.3335208714497185  0.7690435106416054  0.4357101773082719
  O   0.6668542047830518  0.7690435106416054  0.4357101773082719
  O   0.0001875381163852  0.1023768439749387  0.7690435106416054
  O   0.3335208714497185  0.1023768439749387  0.7690435106416054
  O   0.6668542047830518  0.1023768439749387  0.7690435106416054
  O   0.0001875381163852  0.4357101773082719  0.7690435106416054
  O   0.3335208714497185  0.4357101773082719  0.7690435106416054
  O   0.6668542047830518  0.4357101773082719  0.7690435106416054
  O   0.0001875381163852  0.7690435106416054  0.7690435106416054
  O   0.3335208714497185  0.7690435106416054  0.7690435106416054
  O   0.6668542047830518  0.7690435106416054  0.7690435106416054
  O   0.1668564591454089  0.0644474090098193  0.2690515524148040
  O   0.5001897924787423  0.0644474090098193  0.2690515524148040
  O   0.8335231258120755  0.0644474090098193  0.2690515524148040
  O   0.1668564591454089  0.3977807423431526  0.2690515524148040
  O   0.5001897924787423  0.3977807423431526  0.2690515524148040
  O   0.8335231258120755  0.3977807423431526  0.2690515524148040
  O   0.1668564591454089  0.7311140756764859  0.2690515524148040
  O   0.5001897924787423  0.7311140756764859  0.2690515524148040
  O   0.8335231258120755  0.7311140756764859  0.2690515524148040
  O   0.1668564591454089  0.0644474090098193  0.6023848857481373
  O   0.5001897924787423  0.0644474090098193  0.6023848857481373
  O   0.8335231258120755  0.0644474090098193  0.6023848857481373
  O   0.1668564591454089  0.3977807423431526  0.6023848857481373
  O   0.5001897924787423  0.3977807423431526  0.6023848857481373
  O   0.8335231258120755  0.3977807423431526  0.6023848857481373
  O   0.1668564591454089  0.7311140756764859  0.6023848857481373
  O   0.5001897924787423  0.7311140756764859  0.6023848857481373
  O   0.8335231258120755  0.7311140756764859  0.6023848857481373
  O   0.1668564591454089  0.0644474090098193  0.9357182190814706
  O   0.5001897924787423  0.0644474090098193  0.9357182190814706
  O   0.8335231258120755  0.0644474090098193  0.9357182190814706
  O   0.1668564591454089  0.3977807423431526  0.9357182190814706
  O   0.5001897924787423  0.3977807423431526  0.9357182190814706
  O   0.8335231258120755  0.3977807423431526  0.9357182190814706
  O   0.1668564591454089  0.7311140756764859  0.9357182190814706
  O   0.5001897924787423  0.7311140756764859  0.9357182190814706
  O   0.8335231258120755  0.7311140756764859  0.9357182190814706