&CONTROL
   calculation      = 'relax'
   restart_mode     = 'from_scratch'
   tstress          = .false.
   tprnfor          = .true.
   outdir           = './out'
   prefix           = 'ge'
   pseudo_dir       = './'
/
&SYSTEM
   ibrav            = 0
   ecutwfc          = 60.0
   occupations      = 'smearing'
   degauss          = 0.01
   smearing         = 'gaussian'
   ntyp             = 1
   nat              = 128
/
&ELECTRONS
   mixing_beta      = 0.4
/
&IONS
   ion_dynamics    = 'bfgs'
/
&CELL
/
&FCP
/
&RISM
/
ATOMIC_SPECIES
Ge 72.63 Ge.upf

K_POINTS gamma

CELL_PARAMETERS angstrom
16.05091142575227 0.00000000000000 0.00000000000000
8.02545954712420 13.90049692980364 0.00000000000000
0.00000000000000 0.00000000000000 22.28642013896210

ATOMIC_POSITIONS angstrom
Ge 1.0031825972 0.5791874390 7.4572840278  
Ge 1.0031821915 0.5791873816 5.0000000000  
Ge 3.0095473858 1.7375622596 10.7336627315  
Ge 3.0095469801 1.7375622022 8.2763787037  
Ge 5.0159121745 2.8959370802 14.0100414352  
Ge 5.0159117688 2.8959370228 11.5527574074  
Ge 1.0031842199 0.5791876683 17.2864201390  
Ge 1.0031838143 0.5791876110 14.8291361112  
Ge 3.0095474840 4.0543116714 7.4572840278  
Ge 3.0095470783 4.0543116141 5.0000000000  
Ge 5.0159122726 5.2126864920 10.7336627315  
Ge 5.0159118669 5.2126864347 8.2763787037  
Ge 7.0222770613 6.3710613126 14.0100414352  
Ge 7.0222766556 6.3710612553 11.5527574074  
Ge 3.0095491067 4.0543119008 17.2864201390  
Ge 3.0095487010 4.0543118434 14.8291361112  
Ge 5.0159123707 7.5294359039 7.4572840278  
Ge 5.0159119650 7.5294358465 5.0000000000  
Ge 7.0222771594 8.6878107245 10.7336627315  
Ge 7.0222767537 8.6878106671 8.2763787037  
Ge 9.0286419481 9.8461855451 14.0100414352  
Ge 9.0286415424 9.8461854877 11.5527574074  
Ge 5.0159139935 7.5294361332 17.2864201390  
Ge 5.0159135878 7.5294360759 14.8291361112  
Ge 7.0222772575 11.0045601363 7.4572840278  
Ge 7.0222768518 11.0045600790 5.0000000000  
Ge 9.0286420462 12.1629349569 10.7336627315  
Ge 9.0286416405 12.1629348996 8.2763787037  
Ge 11.0350068348 13.3213097775 14.0100414352  
Ge 11.0350064292 13.3213097202 11.5527574074  
Ge 7.0222788803 11.0045603657 17.2864201390  
Ge 7.0222784746 11.0045603083 14.8291361112  
Ge 5.0159104536 0.5791874390 7.4572840278  
Ge 5.0159100479 0.5791873816 5.0000000000  
Ge 7.0222752423 1.7375622596 10.7336627315  
Ge 7.0222748366 1.7375622022 8.2763787037  
Ge 9.0286400309 2.8959370802 14.0100414352  
Ge 9.0286396252 2.8959370228 11.5527574074  
Ge 5.0159120764 0.5791876683 17.2864201390  
Ge 5.0159116707 0.5791876110 14.8291361112  
Ge 7.0222753404 4.0543116714 7.4572840278  
Ge 7.0222749347 4.0543116141 5.0000000000  
Ge 9.0286401291 5.2126864920 10.7336627315  
Ge 9.0286397234 5.2126864347 8.2763787037  
Ge 11.0350049177 6.3710613126 14.0100414352  
Ge 11.0350045120 6.3710612553 11.5527574074  
Ge 7.0222769632 4.0543119008 17.2864201390  
Ge 7.0222765575 4.0543118434 14.8291361112  
Ge 9.0286402272 7.5294359039 7.4572840278  
Ge 9.0286398215 7.5294358465 5.0000000000  
Ge 11.0350050158 8.6878107245 10.7336627315  
Ge 11.0350046101 8.6878106671 8.2763787037  
Ge 13.0413698045 9.8461855451 14.0100414352  
Ge 13.0413693988 9.8461854877 11.5527574074  
Ge 9.0286418499 7.5294361332 17.2864201390  
Ge 9.0286414443 7.5294360759 14.8291361112  
Ge 11.0350051140 11.0045601363 7.4572840278  
Ge 11.0350047083 11.0045600790 5.0000000000  
Ge 13.0413699026 12.1629349569 10.7336627315  
Ge 13.0413694969 12.1629348996 8.2763787037  
Ge 15.0477346913 13.3213097775 14.0100414352  
Ge 15.0477342856 13.3213097202 11.5527574074  
Ge 11.0350067367 11.0045603657 17.2864201390  
Ge 11.0350063310 11.0045603083 14.8291361112  
Ge 9.0286383101 0.5791874390 7.4572840278  
Ge 9.0286379044 0.5791873816 5.0000000000  
Ge 11.0350030987 1.7375622596 10.7336627315  
Ge 11.0350026930 1.7375622022 8.2763787037  
Ge 13.0413678874 2.8959370802 14.0100414352  
Ge 13.0413674817 2.8959370228 11.5527574074  
Ge 9.0286399328 0.5791876683 17.2864201390  
Ge 9.0286395271 0.5791876110 14.8291361112  
Ge 11.0350031968 4.0543116714 7.4572840278  
Ge 11.0350027911 4.0543116141 5.0000000000  
Ge 13.0413679855 5.2126864920 10.7336627315  
Ge 13.0413675798 5.2126864347 8.2763787037  
Ge 15.0477327742 6.3710613126 14.0100414352  
Ge 15.0477323685 6.3710612553 11.5527574074  
Ge 11.0350048196 4.0543119008 17.2864201390  
Ge 11.0350044139 4.0543118434 14.8291361112  
Ge 13.0413680836 7.5294359039 7.4572840278  
Ge 13.0413676779 7.5294358465 5.0000000000  
Ge 15.0477328723 8.6878107245 10.7336627315  
Ge 15.0477324666 8.6878106671 8.2763787037  
Ge 17.0540976609 9.8461855451 14.0100414352  
Ge 17.0540972553 9.8461854877 11.5527574074  
Ge 13.0413697064 7.5294361332 17.2864201390  
Ge 13.0413693007 7.5294360759 14.8291361112  
Ge 15.0477329704 11.0045601363 7.4572840278  
Ge 15.0477325647 11.0045600790 5.0000000000  
Ge 17.0540977591 12.1629349569 10.7336627315  
Ge 17.0540973534 12.1629348996 8.2763787037  
Ge 19.0604625477 13.3213097775 14.0100414352  
Ge 19.0604621420 13.3213097202 11.5527574074  
Ge 15.0477345932 11.0045603657 17.2864201390  
Ge 15.0477341875 11.0045603083 14.8291361112  
Ge 13.0413661665 0.5791874390 7.4572840278  
Ge 13.0413657608 0.5791873816 5.0000000000  
Ge 15.0477309552 1.7375622596 10.7336627315  
Ge 15.0477305495 1.7375622022 8.2763787037  
Ge 17.0540957438 2.8959370802 14.0100414352  
Ge 17.0540953381 2.8959370228 11.5527574074  
Ge 13.0413677893 0.5791876683 17.2864201390  
Ge 13.0413673836 0.5791876110 14.8291361112  
Ge 15.0477310533 4.0543116714 7.4572840278  
Ge 15.0477306476 4.0543116141 5.0000000000  
Ge 17.0540958419 5.2126864920 10.7336627315  
Ge 17.0540954362 5.2126864347 8.2763787037  
Ge 19.0604606306 6.3710613126 14.0100414352  
Ge 19.0604602249 6.3710612553 11.5527574074  
Ge 15.0477326760 4.0543119008 17.2864201390  
Ge 15.0477322704 4.0543118434 14.8291361112  
Ge 17.0540959401 7.5294359039 7.4572840278  
Ge 17.0540955344 7.5294358465 5.0000000000  
Ge 19.0604607287 8.6878107245 10.7336627315  
Ge 19.0604603230 8.6878106671 8.2763787037  
Ge 21.0668255174 9.8461855451 14.0100414352  
Ge 21.0668251117 9.8461854877 11.5527574074  
Ge 17.0540975628 7.5294361332 17.2864201390  
Ge 17.0540971571 7.5294360759 14.8291361112  
Ge 19.0604608268 11.0045601363 7.4572840278  
Ge 19.0604604211 11.0045600790 5.0000000000  
Ge 21.0668256155 12.1629349569 10.7336627315  
Ge 21.0668252098 12.1629348996 8.2763787037  
Ge 23.0731904042 13.3213097775 14.0100414352  
Ge 23.0731899985 13.3213097202 11.5527574074  
Ge 19.0604624496 11.0045603657 17.2864201390  
Ge 19.0604620439 11.0045603083 14.8291361112  

