&CONTROL
   calculation      = 'relax'
   restart_mode     = 'from_scratch'
   tstress          = .false.
   tprnfor          = .true.
   outdir           = './out'
   prefix           = 'ge'
   pseudo_dir       = './'
   nstep            = 100
/
&SYSTEM
   ibrav            = 0
   ecutwfc          = 60.0
   occupations      = 'smearing'
   degauss          = 0.01
   smearing         = 'gaussian'
   ntyp             = 1
   nat              = 128
/
&ELECTRONS
   mixing_beta      = 0.4
/
&IONS
   ion_dynamics     = 'bfgs'
/
&CELL
/
&FCP
/
&RISM
/
ATOMIC_SPECIES
Ge 72.63 Ge.upf

K_POINTS gamma 

CELL_PARAMETERS angstrom
16.32002450978552 0.00000000000000 0.00000000000000
0.00000000000000 16.32002450978552 0.00000000000000
0.00000000000000 0.00000000000000 20.09750000000000

ATOMIC_POSITIONS angstrom
Ge 0.0176599988 -0.0046895514 5.0005860121  
Ge 2.0516783279 0.0019482265 6.4244964546  
Ge 2.0288789730 2.0312070586 7.8875164292  
Ge 0.0089756981 2.0550977539 9.3473942029  
Ge -0.0051015564 -0.0050254094 10.7779997964  
Ge 2.0396489222 0.0025380116 12.2012957940  
Ge 2.0358426868 2.0275236026 13.6455160412  
Ge -0.0031818125 2.0255626442 15.0830401602  
Ge 0.0150930309 4.0605340953 5.0175737533  
Ge 2.0359286250 4.0859754967 6.4238222474  
Ge 2.0253588069 6.1377666806 7.8751155176  
Ge -0.0169269559 6.1217115004 9.3187137291  
Ge 0.0183515505 4.0713779458 10.7856925626  
Ge 2.0530012745 4.0772866148 12.2324784044  
Ge 2.0256669881 6.1336680644 13.6502212550  
Ge 0.0108482068 6.1318066711 15.1025409194  
Ge 0.0183704487 8.1571785261 4.9940641401  
Ge 2.0271613905 8.1764630982 6.4322633628  
Ge 2.0452710553 10.1902703926 7.8661754139  
Ge 0.0196346505 10.1857773217 9.3175665059  
Ge 0.0060005168 8.1745792762 10.7608878566  
Ge 2.0309043626 8.1507749887 12.1941366872  
Ge 2.0289427976 10.1817877067 13.6402521575  
Ge -0.0020157958 10.1800324121 15.0907227978  
Ge -0.0040594786 12.2301645060 4.9837252972  
Ge 2.0475035066 12.2385018682 6.4273179322  
Ge 2.0345910321 14.2731603810 7.8926190166  
Ge -0.0174790789 14.2779026373 9.3217797370  
Ge 0.0163106277 12.2280342164 10.7648347367  
Ge 2.0326864277 12.2532851727 12.2117721676  
Ge 2.0479376723 14.2865637895 13.6729271097  
Ge 0.0081998556 14.2909169083 15.0898076392  
Ge 4.0962996360 -0.0148344530 4.9974736969  
Ge 6.1286853202 0.0104496589 6.4510003055  
Ge 6.1075189876 2.0418608113 7.8739800355  
Ge 4.0937390168 2.0322048265 9.3081848654  
Ge 4.0603083145 0.0042519672 10.7602573702  
Ge 6.1104323881 0.0181962482 12.2088817462  
Ge 6.1013102808 2.0222101006 13.6361792829  
Ge 4.0815329958 2.0307477613 15.1125053667  
Ge 4.0791886688 4.0821297473 5.0102188426  
Ge 6.1295495515 4.0651240368 6.4318024655  
Ge 6.1277845835 6.1355213514 7.8954738098  
Ge 4.0821091751 6.1322896552 9.3231715980  
Ge 4.0653382684 4.0908066618 10.7570307168  
Ge 6.1201976676 4.0821977217 12.2020292735  
Ge 6.1239678736 6.1345178157 13.6607378288  
Ge 4.0972678936 6.1262543741 15.1097984619  
Ge 4.0683407601 8.1519696984 4.9909080852  
Ge 6.1020914459 8.1590793890 6.4365337834  
Ge 6.1035797040 10.1829240962 7.8703672580  
Ge 4.0671939676 10.2090198664 9.3153070250  
Ge 4.0975397916 8.1559727090 10.7613155863  
Ge 6.1379649263 8.1588761136 12.2260953529  
Ge 6.1065520385 10.1995033510 13.6700761167  
Ge 4.0718969919 10.2101123125 15.0900966466  
Ge 4.0908306012 12.2430626209 4.9857975900  
Ge 6.1156622572 12.2357850553 6.4607379221  
Ge 6.1318477290 14.2949509458 7.8876260701  
Ge 4.0829126105 14.2733661883 9.3200443902  
Ge 4.0623566610 12.2367840628 10.7741520417  
Ge 6.1137162237 12.2408710636 12.1942928707  
Ge 6.1039436599 14.2989305236 13.6376188623  
Ge 4.0738462491 14.2713938414 15.1151380470  
Ge 8.1635374357 0.0085648396 5.0019677866  
Ge 10.2165606962 0.0190635257 6.4452108559  
Ge 10.1988762034 2.0569231156 7.8989709463  
Ge 8.1744107936 2.0432791161 9.3232023412  
Ge 8.1645099975 -0.0103642097 10.7571467781  
Ge 10.1933668592 0.0154019846 12.1942726717  
Ge 10.2158950114 2.0500230819 13.6647701831  
Ge 8.1444674680 2.0489024051 15.1144193041  
Ge 8.1749600737 4.0920694846 5.0053310830  
Ge 10.2055643505 4.0888943728 6.4317900148  
Ge 10.1837264810 6.1269434728 7.8720479089  
Ge 8.1489733843 6.1170876533 9.3402751002  
Ge 8.1556774059 4.0706807901 10.7870766542  
Ge 10.1811053837 4.0784719197 12.2039665928  
Ge 10.2123035033 6.1124994388 13.6483588283  
Ge 8.1433853233 6.1234650795 15.0863016842  
Ge 8.1682934138 8.1418728191 4.9870136473  
Ge 10.2143634231 8.1694125054 6.4572893836  
Ge 10.1859983310 10.1899977422 7.8754523856  
Ge 8.1707083037 10.1929482468 9.3233753165  
Ge 8.1676768279 8.1634272975 10.7641133436  
Ge 10.2055396005 8.1587394753 12.1993706359  
Ge 10.1926863305 10.1991151374 13.6645793977  
Ge 8.1639332139 10.1882544297 15.0986871269  
Ge 8.1594526082 12.2434732618 4.9951139468  
Ge 10.1827049003 12.2331104804 6.4278085451  
Ge 10.2020491221 14.2783903672 7.8714440917  
Ge 8.1770866361 14.2838498234 9.3277127521  
Ge 8.1688864690 12.2226345828 10.7650026901  
Ge 10.2070989603 12.2206558498 12.2141285658  
Ge 10.2039986210 14.2874992654 13.6702665906  
Ge 8.1452162810 14.2760587254 15.0978828401  
Ge 12.2485236407 -0.0027393798 4.9939514335  
Ge 14.2858313806 0.0118256110 6.4475979431  
Ge 14.2799418465 2.0467436364 7.8713349821  
Ge 12.2553431209 2.0283614514 9.3078636672  
Ge 12.2328282900 0.0122516699 10.7566695182  
Ge 14.2737533710 -0.0037238007 12.1977475622  
Ge 14.2787209757 2.0213515450 13.6352475123  
Ge 12.2548064800 2.0368836373 15.1152089426  
Ge 12.2476645184 4.0939730387 4.9987044875  
Ge 14.2902753683 4.0990284494 6.4404498411  
Ge 14.2662231787 6.1360998866 7.9044849271  
Ge 12.2338269645 6.1361944015 9.3259422671  
Ge 12.2386036655 4.0622915628 10.7664166423  
Ge 14.2735566450 4.0928212142 12.2018582426  
Ge 14.2886601818 6.1346092017 13.6481514288  
Ge 12.2577973290 6.1035296859 15.0959295685  
Ge 12.2262110423 8.1424389679 5.0052499670  
Ge 14.2758616091 8.1427329514 6.4564684290  
Ge 14.2635057498 10.1907985389 7.8989968321  
Ge 12.2271472507 10.1967037777 9.3116981084  
Ge 12.2355207810 8.1696916501 10.7632792541  
Ge 14.2670781504 8.1709496771 12.2099957001  
Ge 14.2934767055 10.2101169003 13.6670897377  
Ge 12.2529070722 10.1930220667 15.0788092396  
Ge 12.2362413259 12.2374937022 4.9862190671  
Ge 14.2708493236 12.2497041618 6.4490570931  
Ge 14.2760647177 14.2679020447 7.8669741337  
Ge 12.2459021966 14.2778561371 9.3100763958  
Ge 12.2450118978 12.2283725679 10.7580928143  
Ge 14.2738579678 12.2321238341 12.1978277918  
Ge 14.2858073049 14.2620558961 13.6562999914  
Ge 12.2313628917 14.2984605895 15.1139233429  

