! Input file for SCF calculation of bulk Germanium (Diamond Structure)

&CONTROL
    calculation   = 'vc-relax'        ! Type of calculation: Variable-Cell
    restart_mode  = 'from_scratch'    ! Start a new calculation
    prefix        = 'Ge_scf'          ! Prefix for output files (choose a descriptive name)
    pseudo_dir    = './'              ! Directory containing pseudopotential files (MODIFY AS NEEDED)
    outdir        = './Ge_out/'       ! Directory for output/temporary files (MUST EXIST)
    verbosity     = 'low'             ! Level of output detail ('low', 'medium', 'high')
    tprnfor       = .true.            ! Print forces
    tstress       = .true.            ! Print stress tensor
/

&SYSTEM
    ibrav         = 7                 ! Bravais lattice index: 7 = Base centered tetragonal (BCT)
    celldm(1)     = 9.82658           ! Lattice parameter 'a' in Angstrom units
    celldm(3)     = 0.55              ! Lattice parameter 'c' in A units 
    nat           = 2                 ! Number of atoms in the primitive unit cell
    ntyp          = 1                 ! Number of types of atoms
    ecutwfc       = 80.0              ! Kinetic energy cutoff for wavefunctions (in Ry)
    occupations   = 'smearing'        ! Use smearing for occupations (good for convergence, essential for metals)
    smearing      = 'gaussian'        ! Type of smearing
    degauss       = 0.01              ! Smearing width (in Ry) - small value for semiconductors
/

&ELECTRONS
    mixing_mode   = 'plain'           ! Charge density mixing scheme
    mixing_beta   = 0.4               ! Mixing factor for density mixing
    conv_thr      = 1.0e-6            ! Convergence threshold for SCF total energy (in Ry/cell)
    diagonalization = 'david'         ! Algorithm for Hamiltonian diagonalization
/

&IONS
    ion_dynamics  = 'bfgs'            ! Algorithm for ion minimization
/

&CELL
    cell_dynamics = 'bfgs'
    press         = 0.0		      ! Target pressure in kbar
    cell_dofree   = 'ibrav'             ! Full optimization of lattice vectors 
/

ATOMIC_SPECIES
  Ge      72.630   Ge.upf  ! PP file has to be in UPF format 

ATOMIC_POSITIONS {alat}
  Ge   0.0   0.0   0.0
  Ge   0.0   0.5   0.1375 

K_POINTS {automatic}
  6 6 6   0 0 0  
