&CONTROL
   calculation      = 'relax'
   restart_mode     = 'from_scratch'
   tstress          = .false.
   tprnfor          = .true.
   outdir           = './out'
   prefix           = 'ge'
   pseudo_dir       = './'
/
&SYSTEM
   ibrav            = 0
   ecutwfc          = 60.0
   occupations      = 'smearing'
   degauss          = 0.01
   smearing         = 'gaussian'
   ntyp             = 1
   nat              = 16
/
&ELECTRONS
   mixing_beta      = 0.4
/
&IONS
   ion_dynamics     = 'bfgs'
/
&CELL
/
&FCP
/
&RISM
/
ATOMIC_SPECIES
Ge 72.63 Ge.upf

K_POINTS automatic
2 2 1  0 0 0

CELL_PARAMETERS angstrom
8.02545579513718 0.00000000000000 0.00000000000000
0.00000000000000 5.67485421485438 0.00000000000000
0.00000000000000 0.00000000000000 18.02545579513718

ATOMIC_POSITIONS angstrom
Ge 0.0082118428 2.8321835695 5.0078003445  
Ge 0.0021622640 1.4314907845 7.0245286025  
Ge 6.0032052006 -0.0055566684 7.0240598873  
Ge 2.0009874837 4.2525536892 4.9981000493  
Ge 2.0153707009 -0.0028461870 7.0004508988  
Ge 6.0164360180 4.2574493996 5.0084995860  
Ge 4.0165283934 2.8508808478 13.0243068357  
Ge 4.0153658713 1.4014644020 6.9913429806  
Ge 3.9991810030 2.8478818137 9.0288757893  
Ge 3.9991927578 1.4372293239 11.0039514496  
Ge 2.0168181670 0.0009399053 11.0136396571  
Ge 6.0256721098 4.2679110908 8.9999776939  
Ge 6.0368342396 0.0005036480 11.0100660560  
Ge 2.0217245106 4.2625710540 9.0064616491  
Ge -0.0118699309 2.8202497850 9.0021950959  
Ge -0.0145420372 1.4052472800 11.0297112611  

