&CONTROL
   calculation      = 'relax'
   restart_mode     = 'from_scratch'
   tstress          = .false.
   tprnfor          = .true.
   outdir           = './out'
   prefix           = 'ge'
   pseudo_dir       = './'
/
&SYSTEM
   ibrav            = 0
   ecutwfc          = 60.0
   occupations      = 'smearing'
   degauss          = 0.01
   smearing         = 'gaussian'
   ntyp             = 1
   nat              = 144
/
&ELECTRONS
   mixing_beta      = 0.4
/
&IONS
   ion_dynamics     = 'bfgs'
/
&CELL
/
&FCP
/
&RISM
/
ATOMIC_SPECIES
Ge 72.63 Ge.upf

K_POINTS automatic
4 4 1  0 0 0

CELL_PARAMETERS angstrom
24.07636738541154 0.00000000000000 0.00000000000000
0.00000000000000 17.02456264456313 0.00000000000000
0.00000000000000 0.00000000000000 18.02545579513718

ATOMIC_POSITIONS angstrom
Ge -0.0136242096 2.8361733424 5.0026237802  
Ge -0.0189825924 1.4210422778 7.0168655785  
Ge 5.9991846709 -0.0163024472 7.0069126244  
Ge 2.0179500413 4.2374028315 5.0041046187  
Ge 2.0166844685 0.0157723650 6.9988086032  
Ge 6.0119822133 4.2449125473 4.9913264347  
Ge 4.0037806281 2.8303888751 13.0312832228  
Ge 4.0280931412 1.4033112334 7.0070173875  
Ge 4.0162246974 2.8417225963 9.0045079100  
Ge 3.9970625703 1.4168719712 11.0143775698  
Ge 2.0132907734 5.6850980245 11.0279754959  
Ge 5.9995807140 4.2552914367 9.0000339138  
Ge 6.0315526646 5.6829258963 11.0107473641  
Ge 2.0048227621 4.2743705421 9.0306218296  
Ge -0.0184037547 2.8280984531 8.9997097735  
Ge 0.0046030697 1.4337008387 11.0020801678  
Ge -0.0169557364 8.4999969970 4.9986768963  
Ge 0.0102368406 7.1036887674 7.0217572956  
Ge 6.0047229801 5.6869140982 7.0087794733  
Ge 1.9983939657 9.9332328132 5.0114231544  
Ge 1.9865887172 5.6737995542 7.0050495606  
Ge 6.0380677668 9.9286917793 5.0032575057  
Ge 4.0105523668 8.4977250715 13.0367440564  
Ge 3.9968347909 7.1055271384 6.9903434362  
Ge 4.0049435533 8.5260903044 9.0256199867  
Ge 4.0084557043 7.1002817529 11.0211764163  
Ge 2.0220955278 11.3373039244 11.0117151372  
Ge 6.0299182306 9.9506570946 9.0167440019  
Ge 6.0381250936 11.3412881677 11.0106252120  
Ge 1.9908627125 9.9243030238 9.0093165982  
Ge 0.0066535159 8.5200986619 9.0218111842  
Ge 0.0168671662 7.0874777696 11.0340792611  
Ge 0.0036550587 14.2005956799 5.0080433811  
Ge -0.0035368877 12.7772863381 7.0258225243  
Ge 6.0298538537 11.3665006866 7.0200203626  
Ge 2.0049724567 15.6246114106 5.0029911474  
Ge 2.0032294648 11.3445603980 7.0087962315  
Ge 6.0387824835 15.6109846378 5.0019342577  
Ge 3.9937305725 14.1918485348 13.0392638419  
Ge 4.0279532055 12.7641051091 7.0152839111  
Ge 4.0107643324 14.1930148923 9.0047379607  
Ge 4.0013266675 12.7546371445 11.0300002802  
Ge 2.0059961460 -0.0179330094 11.0164551421  
Ge 6.0185338882 15.5931970945 9.0275535546  
Ge 6.0361965284 0.0110699513 11.0158567247  
Ge 2.0150443789 15.6079351405 9.0177210304  
Ge 0.0126115791 14.1921367855 9.0020129118  
Ge 0.0027853032 12.7694912021 11.0094079252  
Ge 8.0084747799 2.8495108606 4.9870493184  
Ge 8.0217080349 1.4068937062 7.0019846362  
Ge 14.0313467417 0.0134450186 7.0110273567  
Ge 10.0126018646 4.2404483074 4.9898630754  
Ge 10.0246971940 0.0132487899 7.0112553108  
Ge 14.0405624398 4.2717727228 4.9851654508  
Ge 12.0182111394 2.8420762289 13.0415763609  
Ge 12.0472516411 1.4122264611 6.9910335978  
Ge 12.0307601773 2.8303581535 9.0185636016  
Ge 12.0524591250 1.4052402919 11.0206542295  
Ge 10.0265163769 5.6582076531 11.0001589486  
Ge 14.0572463873 4.2489045485 8.9972981156  
Ge 14.0512313765 5.6613705829 10.9991907346  
Ge 10.0125289458 4.2451363987 9.0275280811  
Ge 8.0124191799 2.8573341151 9.0130572062  
Ge 8.0397015069 1.4219623242 11.0002264965  
Ge 8.0451231745 8.5068073432 5.0117188186  
Ge 8.0327100831 7.0966988224 7.0034368342  
Ge 14.0374198106 5.6918216142 7.0054629222  
Ge 10.0142922098 9.9133144017 4.9917914496  
Ge 10.0419421029 5.6703260172 7.0201797867  
Ge 14.0511789245 9.9339267276 4.9930326245  
Ge 12.0530239454 8.5152512565 13.0262069634  
Ge 12.0315458702 7.0936340189 7.0167572131  
Ge 12.0302902397 8.5321080562 9.0099896532  
Ge 12.0499045357 7.1042078533 11.0227687663  
Ge 10.0387474600 11.3623847661 11.0213286725  
Ge 14.0557258189 9.9155145927 9.0192374723  
Ge 14.0459183121 11.3349739796 11.0201998571  
Ge 10.0177342218 9.9407503080 9.0166919572  
Ge 8.0402162401 8.5059921830 9.0103408578  
Ge 8.0394289497 7.0927634430 11.0100339557  
Ge 8.0285028563 14.1943092421 5.0177776442  
Ge 8.0343799100 12.7622130303 7.0149724647  
Ge 14.0363559963 11.3311042934 7.0042808616  
Ge 10.0153838757 15.5874842358 4.9968491870  
Ge 10.0458589145 11.3664803273 7.0088320771  
Ge 14.0416625879 15.5875036394 5.0039514468  
Ge 12.0571097120 14.1840945826 13.0151324460  
Ge 12.0415204094 12.7560007021 7.0147507666  
Ge 12.0368800924 14.1839185100 8.9929935314  
Ge 12.0480170734 12.7869005273 11.0351489966  
Ge 10.0501238882 -0.0176684591 11.0388836362  
Ge 14.0628712082 15.6243594580 8.9931658201  
Ge 14.0304833766 0.0144093086 11.0044433470  
Ge 10.0368191515 15.6098019441 8.9949670942  
Ge 8.0153600720 14.1725847050 9.0231053150  
Ge 8.0307920215 12.7878609296 11.0343724582  
Ge 16.0705504657 2.8388222560 5.0054793679  
Ge 16.0529205254 1.4235213122 7.0015179296  
Ge 22.0595471236 0.0156220619 6.9997599469  
Ge 18.0411630252 4.2728126593 5.0196432300  
Ge 18.0551205410 0.0198135388 7.0106626844  
Ge 22.0619166625 4.2591625710 5.0075601932  
Ge 20.0594698686 2.8433073408 13.0068873122  
Ge 20.0455407740 1.4027991075 6.9948268384  
Ge 20.0816110201 2.8435067540 9.0188023704  
Ge 20.0577547661 1.4385125565 11.0359722621  
Ge 18.0586421248 5.6836160981 11.0043222420  
Ge 22.0878300706 4.2694602808 9.0119402144  
Ge 22.0815775335 5.6815232968 11.0071403336  
Ge 18.0504728274 4.2479127549 9.0068235007  
Ge 16.0309594771 2.8349090206 9.0102605192  
Ge 16.0509972939 1.4319817943 11.0051115812  
Ge 16.0622226912 8.5255798139 5.0024607421  
Ge 16.0632908645 7.0744491983 7.0184481261  
Ge 22.0501391444 5.6641320850 7.0025474979  
Ge 18.0651099366 9.9258973622 4.9828048011  
Ge 18.0730850185 5.6642186317 7.0160814762  
Ge 22.0864173951 9.9259266786 4.9879362590  
Ge 20.0753704431 8.5215652051 13.0078043185  
Ge 20.0746628325 7.0889323214 7.0038799406  
Ge 20.0707308749 8.5051499683 9.0189368726  
Ge 20.0693482203 7.0778376306 11.0069186648  
Ge 18.0725384677 11.3670328655 11.0375848553  
Ge 22.0626944614 9.9482365755 9.0156369239  
Ge 22.0803822909 11.3410027897 11.0388165063  
Ge 18.0564143472 9.9127888817 9.0271601704  
Ge 16.0337710707 8.5273434650 9.0033026058  
Ge 16.0324409690 7.0806133521 11.0023208783  
Ge 16.0562223793 14.1986261620 4.9839424388  
Ge 16.0322128364 12.7875892979 7.0086652563  
Ge 22.0888550976 11.3639353339 7.0249075890  
Ge 18.0680237471 15.6221652257 4.9967485885  
Ge 18.0476358828 11.3301564915 7.0224732531  
Ge 22.0583191529 15.5902180503 4.9816523740  
Ge 20.0595589090 14.1979927007 13.0307942019  
Ge 20.0693214784 12.7666970547 6.9968697940  
Ge 20.0493976410 14.2022804283 8.9985339656  
Ge 20.0644751373 12.7556134467 11.0233438241  
Ge 18.0577323782 -0.0119835798 11.0384825711  
Ge 22.0653115355 15.6249976050 8.9934044397  
Ge 22.0627725892 0.0080658899 11.0309174228  
Ge 18.0422959930 15.5861903381 9.0272905897  
Ge 16.0613750181 14.1900415100 9.0242505581  
Ge 16.0324679014 12.7499867436 11.0178865556  

