&CONTROL
   calculation      = 'relax'
   restart_mode     = 'from_scratch'
   nstep            = 100
   tstress          = .false.
   tprnfor          = .true.
   outdir           = './out'
   prefix           = 'ge'
   pseudo_dir       = './'
/
&SYSTEM
   ibrav            = 0
   ecutwfc          = 60.0
   occupations      = 'smearing'
   degauss          = 0.01
   smearing         = 'gaussian'
   ntyp             = 1
   nat              = 144
/
&ELECTRONS
   mixing_beta      = 0.4
/
&IONS
   ion_dynamics     = 'bfgs'
/
&CELL
/
&FCP
/
&RISM
/
ATOMIC_SPECIES
Ge 72.63 Ge.upf

K_POINTS automatic
4 4 1  0 0 0

CELL_PARAMETERS angstrom
24.07636738541154 0.00000000000000 0.00000000000000
12.03818369270578 20.85074578661352 0.00000000000000
0.00000000000000 0.00000000000000 14.09547326069757

ATOMIC_POSITIONS angstrom
Ge 10.0509445653 5.7849675919 5.8064638205  
Ge 2.0214323475 1.1699008531 4.9866720851  
Ge 8.0117141620 2.3227248529 5.8002396024  
Ge 3.9981351804 4.6322541283 5.0094162457  
Ge 6.0173384032 5.7751962334 5.8335814813  
Ge 6.0373359806 1.1408223880 4.9925219462  
Ge 4.0070102271 2.3169055289 5.7996470927  
Ge 8.0072734166 4.6194616855 4.9986410325  
Ge 6.0390257692 3.4705163787 9.0871261649  
Ge 10.0158836775 5.7778119618 8.2916344634  
Ge 4.0251355674 -0.0180272807 9.1075166473  
Ge 8.0326662273 2.3273644669 8.2913376079  
Ge 1.9863891769 3.4947901568 9.1089307248  
Ge 6.0164706772 5.7790261416 8.2697912862  
Ge -0.0158235602 0.0098688984 9.0894154693  
Ge 4.0219778869 2.3032377610 8.2672402092  
Ge 14.0526068033 12.7408162556 5.8332251946  
Ge 6.0280427181 8.1192673585 4.9943387706  
Ge 12.0226197626 9.2740434664 5.8099846041  
Ge 8.0423124975 11.5882811664 5.0029625661  
Ge 10.0372538448 12.7236184359 5.8389513611  
Ge 10.0290016008 8.1259036740 4.9932115289  
Ge 8.0338839819 9.2832679907 5.8358227712  
Ge 12.0376914036 11.5920491133 4.9942201892  
Ge 10.0253834600 10.4292743976 9.0888549891  
Ge 14.0606115173 12.7246844057 8.2598600221  
Ge 8.0217882564 6.9437057492 9.0778634801  
Ge 12.0550213767 9.2692200932 8.2814758433  
Ge 6.0365897753 10.4443027003 9.1134213012  
Ge 10.0229059049 12.7453335254 8.2736363210  
Ge 3.9987647637 6.9613490850 9.0964231661  
Ge 8.0110938097 9.2761521378 8.2635100627  
Ge 18.0511702904 19.7085670294 5.8083908292  
Ge 10.0137746181 15.0633967856 4.9839107834  
Ge 16.0569976171 16.2238721738 5.8257226811  
Ge 12.0320965448 18.5534145537 5.0150634196  
Ge 14.0339773883 19.6900967318 5.8060059371  
Ge 14.0351097185 15.0749989484 5.0011592506  
Ge 12.0575730233 16.1982848426 5.8302136390  
Ge 16.0489017234 18.5330488852 4.9855128588  
Ge 14.0584695321 17.3728363417 9.1141944964  
Ge 18.0642382115 19.7104215427 8.2628733026  
Ge 12.0262423788 13.9053433910 9.0794454543  
Ge 16.0525070663 16.2213331193 8.2704948849  
Ge 10.0355231932 17.3938255933 9.1019574672  
Ge 14.0484077003 19.6806305806 8.2944083260  
Ge 8.0398853202 13.8847585707 9.0949677069  
Ge 12.0298370433 16.2168406922 8.2759208376  
Ge 18.0769581302 5.7761755763 5.8326444847  
Ge 10.0406502619 1.1465890069 4.9897086582  
Ge 16.0564293343 2.2981197508 5.8344177376  
Ge 12.0475297861 4.6172883708 4.9845321910  
Ge 14.0269090056 5.8053358070 5.8096975391  
Ge 14.0295893135 1.1435315031 4.9913924901  
Ge 12.0407690484 2.3218398994 5.8017043158  
Ge 16.0390397835 4.6345579369 4.9958085008  
Ge 14.0356358205 3.4662816407 9.0959809472  
Ge 18.0673205424 5.7817102394 8.2772162928  
Ge 12.0347715942 0.0103930798 9.0965565065  
Ge 16.0634010518 2.3135374888 8.2948014430  
Ge 10.0469988048 3.4686650285 9.0872756216  
Ge 14.0538758287 5.7757510668 8.2657411958  
Ge 8.0138754311 0.0089920562 9.0896118275  
Ge 12.0493628615 2.3342443436 8.2577561407  
Ge 22.0702712333 12.7486967969 5.8178403335  
Ge 14.0250549606 8.1057473585 4.9941763277  
Ge 20.0662110676 9.2575414376 5.8210552984  
Ge 16.0373055596 11.5968731192 5.0022441168  
Ge 18.0516720353 12.7617017670 5.8023965569  
Ge 18.0708627444 8.0901620570 4.9814876646  
Ge 16.0689101242 9.2788126806 5.8361767503  
Ge 20.0667574367 11.6002741795 4.9888707777  
Ge 18.0582070346 10.4323704348 9.0975370177  
Ge 22.0610785300 12.7614027143 8.2890707515  
Ge 16.0485405181 6.9572720278 9.1030659055  
Ge 20.0559833582 9.2729185614 8.2837755691  
Ge 14.0365196377 10.4290928114 9.1093469428  
Ge 18.0451622246 12.7397061062 8.2863140329  
Ge 12.0477560305 6.9366578981 9.0934503956  
Ge 16.0333479781 9.2731522313 8.2609129634  
Ge 26.0843603075 19.6892621085 5.8372205702  
Ge 18.0661556908 15.0624209886 4.9860817383  
Ge 24.0689392498 16.1997087191 5.8277921381  
Ge 20.0501494100 18.5171341698 4.9834734529  
Ge 22.0581283885 19.7053271851 5.8192477548  
Ge 22.0852666498 15.0452081664 4.9836164194  
Ge 20.0813881098 16.2208401534 5.8185837956  
Ge 24.0637261131 18.5271698712 4.9970184664  
Ge 22.0589578463 17.3667366628 9.1096065933  
Ge 26.0709633570 19.6826382936 8.2700030349  
Ge 20.0491282647 13.8963901986 9.0763901211  
Ge 24.0879110936 16.2354752600 8.2906878253  
Ge 18.0426938350 17.3719964315 9.0848963656  
Ge 22.0530179947 19.6888512391 8.2693911544  
Ge 16.0616224062 13.8826926577 9.0964108181  
Ge 20.0726131875 16.2106531647 8.2584533237  
Ge 26.0804430668 5.7846775733 5.8035695977  
Ge 18.0771787620 1.1424452595 5.0005613270  
Ge 24.0627732618 2.3272024926 5.8109826091  
Ge 20.0820705394 4.6197176607 4.9970391548  
Ge 22.0683626358 5.7744849062 5.8127591448  
Ge 22.0599252143 1.1685538160 4.9971216149  
Ge 20.0493464399 2.3110246647 5.8288851853  
Ge 24.0672283676 4.6212368452 4.9857927697  
Ge 22.0527906751 3.4801613581 9.0965860099  
Ge 26.0945856680 5.7917956114 8.2925632326  
Ge 20.0719374172 0.0173085653 9.0889568982  
Ge 24.0842245972 2.3059383504 8.2748216483  
Ge 18.0701580261 3.4761086208 9.0870945693  
Ge 22.0737096565 5.7997747412 8.2881713063  
Ge 16.0521504567 0.0146439342 9.1064193131  
Ge 20.0588200407 2.3225782501 8.2714203385  
Ge 30.1087484355 12.7321519185 5.8359908414  
Ge 22.0883676224 8.1239766685 5.0076643670  
Ge 28.1070504813 9.2661984440 5.8282734417  
Ge 24.0833021717 11.5835721731 4.9921662640  
Ge 26.0969715763 12.7360422066 5.8013798552  
Ge 26.0841203481 8.1053299243 5.0060846633  
Ge 24.0859338800 9.2593297452 5.8015822731  
Ge 28.0876735792 11.5734691431 4.9807886053  
Ge 26.0783498515 10.4338601025 9.1029504020  
Ge 30.0945318646 12.7321349859 8.2941073518  
Ge 24.0887513033 6.9476580497 9.1061547073  
Ge 28.0945863024 9.2700094496 8.2865413849  
Ge 22.0849259205 10.4394478373 9.1039201289  
Ge 26.0985880613 12.7463169525 8.2875038583  
Ge 20.0679927965 6.9489997827 9.0989526178  
Ge 24.0795067745 9.2574975532 8.2892018974  
Ge 34.1145567781 19.7017175650 5.8177127689  
Ge 26.0865137763 15.0418960726 5.0169462764  
Ge 32.1013743578 16.2299225547 5.8262101317  
Ge 28.0855037426 18.5363034200 4.9821208631  
Ge 30.0935767455 19.6822311306 5.8267307206  
Ge 30.0846100572 15.0641295915 4.9812025021  
Ge 28.0797467028 16.2102239119 5.8228458312  
Ge 32.0984177455 18.5498695575 4.9920986085  
Ge 30.0815193739 17.3932157021 9.1050332923  
Ge 34.0994802389 19.7090348763 8.2952661557  
Ge 28.0874056777 13.8872305714 9.1102967703  
Ge 32.1106512446 16.2317741957 8.2896013492  
Ge 26.0685382618 17.3720292643 9.0844284517  
Ge 30.0818096451 19.6778657435 8.2937887760  
Ge 24.0755270610 13.8924894126 9.0931669198  
Ge 28.0901148346 16.2103376113 8.2567312733  

