&CONTROL
   calculation      = 'relax'
   restart_mode     = 'from_scratch'
   tstress          = .false.
   tprnfor          = .true.
   outdir           = './out'
   prefix           = 'ge'
   pseudo_dir       = './'
/
&SYSTEM
   ibrav            = 0
   ecutwfc          = 60.0
   occupations      = 'smearing'
   degauss          = 0.01
   smearing         = 'gaussian'
   ntyp             = 1
   nat              = 288
/
&ELECTRONS
   mixing_beta      = 0.4
/
&IONS
   ion_dynamics     = 'bfgs'
/
&CELL
/
&FCP
/
&RISM
/
ATOMIC_SPECIES
Ge 72.63 Ge.upf

K_POINTS automatic
4 4 1  0 0 0

CELL_PARAMETERS angstrom
24.07636738541154 0.00000000000000 0.00000000000000
-12.03818369270577 20.85074578661352 0.00000000000000
0.00000000000000 0.00000000000000 20.64823047781368

ATOMIC_POSITIONS angstrom
Ge 4.0158429201 4.6396336608 5.8092462199  
Ge -0.0145895195 2.3302975994 5.0135962313  
Ge 6.0301871990 1.1588523590 5.8059631831  
Ge -1.9909290543 5.7733989266 4.9899692934  
Ge 2.0105062850 1.1511039751 5.8335920506  
Ge 2.0118236533 5.8050932086 5.0112419552  
Ge 0.0028517848 4.6286406363 5.8335688894  
Ge 4.0259002113 2.3195265061 4.9964256189  
Ge 3.9982303100 0.0127748020 9.0778096652  
Ge 4.0167483257 4.6269749628 8.2687832317  
Ge 1.9873403564 3.4933081216 9.0965189749  
Ge 6.0178404161 1.1650934710 8.2844383315  
Ge -2.0037900554 3.4611846276 9.0762362085  
Ge 1.9942091505 1.1676644357 8.2582767740  
Ge -0.0179899462 0.0043217682 9.0988497233  
Ge 0.0001883906 4.6172374338 8.2857395319  
Ge 0.0118489875 2.3040640071 12.3786077866  
Ge 4.0294182961 0.0004988363 11.5409976527  
Ge -2.0181482319 5.8076457357 12.3596011245  
Ge 1.9928421925 3.4790875675 11.5341259491  
Ge 2.0091748132 5.7970297816 12.3700638168  
Ge -1.9960117188 3.4809824482 11.5670526162  
Ge 4.0298039495 2.3044848301 12.3572120795  
Ge 0.0042149747 -0.0133626610 11.5592746626  
Ge 4.0312705756 4.6489425500 15.6426712724  
Ge 0.0132699559 2.3298570147 14.8244732382  
Ge 6.0037637609 1.1524890824 15.6339157257  
Ge -2.0077494254 5.8049575113 14.8120592511  
Ge 2.0154535671 1.1393990093 15.6340156631  
Ge 2.0195008020 5.7956736323 14.8355640284  
Ge 0.0125309143 4.6234247563 15.6664817817  
Ge 4.0242183297 2.3257906454 14.8364044346  
Ge -0.0010359625 11.5678714304 5.8349190267  
Ge -4.0320760015 9.2571747955 5.0038800375  
Ge 2.0188855881 8.0994606697 5.8309276066  
Ge -6.0336540352 12.7422152302 5.0189202587  
Ge -2.0098046273 8.1098388035 5.8367980256  
Ge -1.9939258229 12.7276213644 4.9853854346  
Ge -4.0314914116 11.5718713381 5.8024502133  
Ge 0.0041697814 9.2779973866 5.0175698931  
Ge 0.0073398568 6.9329018949 9.1139329899  
Ge -0.0093162773 11.5867238671 8.2930231801  
Ge -1.9998421669 10.4301942181 9.0944364625  
Ge 2.0119172534 8.1157461230 8.2645699307  
Ge -6.0263889332 10.4206360245 9.0969678574  
Ge -2.0018031515 8.1099769599 8.2623008141  
Ge -3.9963229745 6.9414744443 9.0885762579  
Ge -4.0304513853 11.5985852110 8.2807738466  
Ge -4.0200212026 9.2815013687 12.3851237462  
Ge -0.0161509965 6.9311133450 11.5687944313  
Ge -6.0102184927 12.7320123785 12.3867099169  
Ge -2.0157966786 10.4140763821 11.5391814728  
Ge -1.9892248401 12.7588298301 12.3565291516  
Ge -6.0216734584 10.4146533952 11.5544196906  
Ge -0.0183999084 9.2479313054 12.3704199317  
Ge -4.0240093641 6.9410847275 11.5460091591  
Ge -0.0182819692 11.5661832720 15.6641231690  
Ge -4.0196653789 9.2707792263 14.8147402650  
Ge 1.9979415709 8.0889781743 15.6292152152  
Ge -6.0195009277 12.7396525873 14.8225119264  
Ge -2.0263424266 8.0910962705 15.6605560346  
Ge -2.0194970757 12.7334311071 14.8189945287  
Ge -4.0223153537 11.5694898050 15.6339647643  
Ge -0.0025198947 9.2502032277 14.8490952150  
Ge -4.0216271908 18.5476590576 5.8345655980  
Ge -8.0223603299 16.2093147891 5.0119617019  
Ge -2.0248447354 15.0410897805 5.8119105856  
Ge -10.0300177368 19.6880037133 4.9839894138  
Ge -6.0216446356 15.0700890050 5.8009198966  
Ge -6.0069801590 19.6977787985 5.0173196150  
Ge -8.0379956028 18.5308204478 5.8349216745  
Ge -3.9928911191 16.2150092513 4.9881988336  
Ge -4.0308690711 13.9090427250 9.0970921468  
Ge -4.0094795669 18.5329897518 8.2819930109  
Ge -6.0164180583 17.3789101717 9.1152930716  
Ge -1.9883004589 15.0662808952 8.2795819393  
Ge -10.0292823705 17.3626866615 9.0877919270  
Ge -6.0263652316 15.0586137246 8.2791235213  
Ge -8.0180644850 13.9070772878 9.0962863217  
Ge -8.0248386734 18.5343808255 8.2794786718  
Ge -8.0397716471 16.2036747239 12.3654638189  
Ge -4.0161701681 13.8874278004 11.5608827630  
Ge -10.0463241004 19.7020824748 12.3522163594  
Ge -6.0141847601 17.3953159685 11.5638354648  
Ge -6.0365366137 19.6732953563 12.3687447156  
Ge -10.0418113401 17.3723475735 11.5376073098  
Ge -4.0186148128 16.2106319705 12.3888822285  
Ge -8.0174255269 13.9012645330 11.5568777705  
Ge -3.9974619742 18.5401121701 15.6676828764  
Ge -8.0262259493 16.2327073380 14.8097811104  
Ge -2.0083080887 15.0407134684 15.6360689944  
Ge -10.0484175426 19.7066129277 14.8129725195  
Ge -6.0243087745 15.0700301781 15.6359745309  
Ge -6.0309333096 19.6803421520 14.8197858920  
Ge -8.0054737034 18.5225446275 15.6479594688  
Ge -4.0170793349 16.2291532537 14.8325500558  
Ge 12.0510798748 4.6271963145 5.8181223880  
Ge 8.0232739290 2.3304766018 4.9877887157  
Ge 14.0393025380 1.1726923200 5.8201318826  
Ge 6.0276169340 5.7943340949 4.9815704969  
Ge 10.0372246281 1.1726644457 5.8056776481  
Ge 10.0400566713 5.7744397864 5.0038158733  
Ge 8.0307751911 4.6430081923 5.8128464702  
Ge 12.0460525142 2.3135048418 4.9889958877  
Ge 12.0572719687 0.0035489005 9.0865609075  
Ge 12.0513477876 4.6491553509 8.2799940779  
Ge 10.0180951625 3.4925344502 9.1074740637  
Ge 14.0497537963 1.1499530155 8.2923181621  
Ge 6.0234399597 3.4819976724 9.0785269568  
Ge 10.0247341845 1.1392542065 8.2620756583  
Ge 8.0420425163 -0.0096901583 9.0801055958  
Ge 8.0137460988 4.6438793969 8.2810908457  
Ge 8.0073751719 2.3070149483 12.3683105594  
Ge 12.0473345819 0.0189905880 11.5568257719  
Ge 6.0357966566 5.7768903147 12.3583192423  
Ge 10.0473760133 3.4551748897 11.5466810823  
Ge 10.0400525290 5.7978215731 12.3542334775  
Ge 6.0179905068 3.4817944020 11.5517413213  
Ge 12.0520738293 2.2982807712 12.3787688843  
Ge 8.0244566535 0.0123171700 11.5593961989  
Ge 12.0217857356 4.6366527676 15.6447655595  
Ge 8.0390980311 2.3272531336 14.8423022017  
Ge 14.0499684496 1.1580207157 15.6681895552  
Ge 6.0157396837 5.8017057182 14.8458699431  
Ge 10.0198163407 1.1425305642 15.6572840154  
Ge 10.0250161384 5.7960252333 14.8321272754  
Ge 8.0064250587 4.6298374075 15.6328031133  
Ge 12.0441736274 2.3176244981 14.8293641790  
Ge 8.0199321864 11.5884253978 5.8112590458  
Ge 4.0271926707 9.2481876096 4.9907314405  
Ge 10.0243786495 8.0998098463 5.8034716832  
Ge 2.0075594203 12.7589601187 5.0097897387  
Ge 6.0092085509 8.1191309762 5.8026537874  
Ge 6.0302906119 12.7334407988 4.9929315950  
Ge 3.9945078144 11.5987350397 5.8334301427  
Ge 8.0312923858 9.2815955053 5.0051600675  
Ge 8.0284443822 6.9353927581 9.0801647051  
Ge 8.0279424416 11.5745408131 8.2881246747  
Ge 6.0120091993 10.4420753022 9.0996669782  
Ge 10.0406544836 8.1283736207 8.2593483249  
Ge 2.0055795356 10.4070277608 9.1022512787  
Ge 6.0124506440 8.0951034591 8.2612693418  
Ge 4.0065089096 6.9330197513 9.0781034025  
Ge 4.0055126070 11.5970019900 8.2739823863  
Ge 4.0107654459 9.2806983255 12.3769419588  
Ge 8.0195544952 6.9630806204 11.5621125848  
Ge 2.0203797422 12.7449893647 12.3723589029  
Ge 6.0244100548 10.4190383041 11.5392630801  
Ge 6.0226559395 12.7368957124 12.3811721653  
Ge 2.0072783181 10.4281348461 11.5509719291  
Ge 8.0350290634 9.2639382724 12.3835668817  
Ge 4.0096416180 6.9310361475 11.5610907937  
Ge 8.0377285033 11.5797654282 15.6422399142  
Ge 4.0129945542 9.2566317234 14.8414694872  
Ge 10.0362915153 8.1067106895 15.6392192540  
Ge 2.0056616195 12.7406297500 14.8133694892  
Ge 6.0375968120 8.1040580046 15.6622503368  
Ge 6.0241016606 12.7309390799 14.8285198417  
Ge 4.0012123637 11.5841593884 15.6525139991  
Ge 8.0073950330 9.2846718788 14.8451217591  
Ge 4.0267764542 18.5228925103 5.8134080732  
Ge 0.0117494809 16.1986184823 4.9969104241  
Ge 6.0379764924 15.0782267820 5.8212241443  
Ge -2.0087372509 19.7072356113 4.9949668972  
Ge 2.0052107214 15.0595931443 5.8344949401  
Ge 1.9955063234 19.6827342557 4.9851142029  
Ge -0.0156409100 18.5314320156 5.7991105134  
Ge 3.9994024100 16.1976069813 5.0002582420  
Ge 4.0299880014 13.9196450181 9.1154624182  
Ge 4.0001353598 18.5210773038 8.2772159939  
Ge 1.9911050789 17.3794417530 9.0815949091  
Ge 6.0024878948 15.0739224711 8.2695785130  
Ge -2.0020088883 17.3903513339 9.0799724800  
Ge 2.0029244580 15.0528344455 8.2712682740  
Ge 0.0066417537 13.9194171187 9.1000604641  
Ge 0.0102818857 18.5488034563 8.2663868786  
Ge 0.0167539266 16.2290048321 12.3799823008  
Ge 4.0153094520 13.8933846323 11.5408423270  
Ge -2.0112146040 19.7080912151 12.3916252988  
Ge 1.9877937096 17.3749053690 11.5643344579  
Ge 1.9944454828 19.6733341891 12.3709921172  
Ge -2.0135037774 17.3648757051 11.5417149206  
Ge 4.0025860807 16.2064182431 12.3697572837  
Ge 0.0018491479 13.8941436817 11.5335766541  
Ge 4.0185452099 18.5381748940 15.6651345807  
Ge 0.0137456160 16.2361799083 14.8240697795  
Ge 6.0046725516 15.0563374360 15.6337532010  
Ge -2.0200627843 19.6773223153 14.8428825525  
Ge 2.0018690575 15.0780667753 15.6539737652  
Ge 1.9980796228 19.6960295772 14.8174400460  
Ge 0.0002584335 18.5489978889 15.6340379216  
Ge 4.0142448550 16.2173154961 14.8278510910  
Ge 20.0776328052 4.6215238372 5.8284655611  
Ge 16.0340810798 2.3119847919 5.0110414206  
Ge 22.0687131888 1.1648740254 5.8270720023  
Ge 14.0366536567 5.7967846620 5.0114110170  
Ge 18.0733533518 1.1733696942 5.8193156668  
Ge 18.0572640465 5.8107268814 5.0155247498  
Ge 16.0701041999 4.6227820568 5.8279586441  
Ge 20.0706849010 2.2973059910 4.9950247981  
Ge 20.0739138822 0.0145433566 9.1020310323  
Ge 20.0619156311 4.6356436026 8.2789756688  
Ge 18.0705795160 3.4819268703 9.0968418748  
Ge 22.0875638864 1.1465333114 8.2758274202  
Ge 14.0605018397 3.4794963579 9.0801111187  
Ge 18.0684595498 1.1471055560 8.2633434965  
Ge 16.0695356780 -0.0018278265 9.0780401412  
Ge 16.0566122888 4.6215124489 8.2646736177  
Ge 16.0670078351 2.3322834049 12.3815280698  
Ge 20.0491705574 -0.0078202921 11.5547727483  
Ge 14.0555803584 5.7845407242 12.3719774852  
Ge 18.0641564818 3.4670394885 11.5536636816  
Ge 18.0624922958 5.7832094853 12.3540959445  
Ge 14.0426243746 3.4617460348 11.5336988415  
Ge 20.0441693504 2.3347980931 12.3683034748  
Ge 16.0514961103 0.0039299443 11.5443083241  
Ge 20.0790936983 4.6357332328 15.6471040940  
Ge 16.0535559215 2.3147944336 14.8096867971  
Ge 22.0894510449 1.1385679094 15.6384848655  
Ge 14.0276416184 5.7900374985 14.8103921972  
Ge 18.0657424405 1.1760281476 15.6419206550  
Ge 18.0533325498 5.7973437841 14.8426364942  
Ge 16.0536003652 4.6491613479 15.6427411446  
Ge 20.0692182023 2.3217266093 14.8263787771  
Ge 16.0621127100 11.5880226490 5.8374384299  
Ge 12.0563138114 9.2485947825 4.9837131047  
Ge 18.0526169356 8.1043767104 5.8201828927  
Ge 10.0500835388 12.7410905608 4.9930779803  
Ge 14.0372386229 8.1033646307 5.8111663401  
Ge 14.0287214239 12.7461089809 5.0121950281  
Ge 12.0415186963 11.5796090497 5.8326040231  
Ge 16.0446300264 9.2844653491 4.9824221551  
Ge 16.0350192468 6.9498943879 9.0780225119  
Ge 16.0427551392 11.5852488603 8.2881103393  
Ge 14.0460504674 10.4109482192 9.0806491410  
Ge 18.0761685119 8.0931856101 8.2765165260  
Ge 10.0455962128 10.4177837896 9.1036384319  
Ge 14.0601314394 8.0910469072 8.2720714090  
Ge 12.0347104013 6.9678885375 9.0780170111  
Ge 12.0577480905 11.5804254621 8.2806971868  
Ge 12.0563824677 9.2492445707 12.3861380475  
Ge 16.0592423849 6.9653852546 11.5655656015  
Ge 10.0273677803 12.7278772731 12.3878253764  
Ge 14.0246457085 10.4378211468 11.5657168690  
Ge 14.0267784089 12.7426595195 12.3823508269  
Ge 10.0234465270 10.4209234427 11.5542219656  
Ge 16.0391278947 9.2639511543 12.3835980931  
Ge 12.0269588357 6.9391487450 11.5707815895  
Ge 16.0566342202 11.5640440215 15.6630535080  
Ge 12.0355396397 9.2684751887 14.8123794716  
Ge 18.0728496541 8.1024173346 15.6668384170  
Ge 10.0135531485 12.7516822164 14.8307930081  
Ge 14.0632046824 8.1128796601 15.6451045589  
Ge 14.0563111161 12.7550006773 14.8488925974  
Ge 12.0395337836 11.5947377716 15.6358214157  
Ge 16.0465681879 9.2731389752 14.8286517892  
Ge 12.0523379963 18.5345840027 5.8264320832  
Ge 8.0430376351 16.2112160452 5.0030394551  
Ge 14.0396576503 15.0560410858 5.8281337386  
Ge 6.0280736125 19.6828876635 5.0188861869  
Ge 10.0338995819 15.0628634845 5.8217716599  
Ge 10.0177229364 19.7037171875 4.9824852043  
Ge 8.0254412039 18.5214555891 5.8029458247  
Ge 12.0547831095 16.2239280079 4.9860345237  
Ge 12.0476529463 13.8820043623 9.1146439266  
Ge 12.0188307889 18.5522151399 8.2907526077  
Ge 10.0394571980 17.3715676467 9.0985302257  
Ge 14.0608287112 15.0665345991 8.2692075973  
Ge 6.0055789644 17.3802692397 9.1090207385  
Ge 10.0431259051 15.0516426096 8.2856593720  
Ge 8.0147201053 13.9010028977 9.1068087707  
Ge 8.0385732800 18.5258089661 8.2727250695  
Ge 8.0280005020 16.2245360985 12.3526040273  
Ge 12.0334693184 13.8948005869 11.5452314327  
Ge 6.0288967311 19.6898295689 12.3674836451  
Ge 10.0389931648 17.3945660403 11.5411551144  
Ge 10.0169219768 19.7035078692 12.3836528133  
Ge 6.0033185068 17.3661491120 11.5699865760  
Ge 12.0337355197 16.2328388802 12.3860533107  
Ge 8.0151395626 13.9053631872 11.5434342937  
Ge 12.0456270207 18.5452405166 15.6394155075  
Ge 8.0369479578 16.2238342744 14.8335777030  
Ge 14.0257247081 15.0618116278 15.6364015207  
Ge 6.0141089675 19.6805862558 14.8429805003  
Ge 10.0385971007 15.0501504270 15.6410500687  
Ge 10.0168740767 19.6885959154 14.8304365626  
Ge 8.0174992739 18.5448244189 15.6487484385  
Ge 12.0392707276 16.2174035537 14.8260205376  

