&CONTROL
   calculation      = 'relax'
   restart_mode     = 'from_scratch'
   tstress          = .false.
   tprnfor          = .true.
   outdir           = './out'
   prefix           = 'ge'
   pseudo_dir       = './'
/
&SYSTEM
   ibrav            = 0
   ecutwfc          = 60.0
   occupations      = 'smearing'
   degauss          = 0.01
   smearing         = 'gaussian'
   ntyp             = 1
   nat              = 144
/
&ELECTRONS
   mixing_beta      = 0.4
/
&IONS
   ion_dynamics     = 'bfgs'
/
&CELL
/
&FCP
/
&RISM
/
ATOMIC_SPECIES
Ge 72.63 Ge.upf

K_POINTS gamma

CELL_PARAMETERS angstrom
24.07636738541154 0.00000000000000 0.00000000000000
-12.03818369270577 20.85074578661352 0.00000000000000
0.00000000000000 0.00000000000000 14.09547326069757

ATOMIC_POSITIONS angstrom
Ge 4.0051506082 4.6480400124 5.8383448043  
Ge -0.0019896567 2.3270346395 4.9844629442  
Ge 6.0204178078 1.1533700778 5.8350818530  
Ge -2.0166809354 5.7815445785 5.0029794290  
Ge 2.0039098316 1.1510558189 5.8142956428  
Ge 2.0144822863 5.7828329808 4.9951669879  
Ge 0.0078010508 4.6491983787 5.8270655661  
Ge 4.0010585526 2.3292486109 4.9816915716  
Ge 4.0195779695 0.0190720402 9.1055169225  
Ge 4.0117896055 4.6391751148 8.2922963177  
Ge 2.0192091509 3.4812850882 9.0967445595  
Ge 6.0013916257 1.1442817909 8.2714695814  
Ge 6.0298956101 3.4930633583 9.0933915926  
Ge 1.9877634490 1.1782072820 8.2720629797  
Ge 8.0114493333 -0.0177123357 9.0952701070  
Ge -0.0123228518 4.6381703586 8.2864666292  
Ge 0.0088915555 11.5695956348 5.8275568780  
Ge -4.0270717983 9.2706529544 5.0068593523  
Ge 2.0120392799 8.1036068144 5.8178576888  
Ge -6.0166457316 12.7397594490 4.9991300246  
Ge -2.0016826081 8.0997390823 5.8235340816  
Ge -2.0166830528 12.7602500031 4.9866199330  
Ge -4.0118544301 11.5763877166 5.8271461183  
Ge -0.0150065922 9.2491005360 5.0129315201  
Ge 0.0132367754 6.9433404351 9.0986312533  
Ge -0.0130496843 11.5937863445 8.2900083940  
Ge -2.0136795614 10.4417171061 9.0785797068  
Ge 2.0097996644 8.1110401572 8.2841713629  
Ge 2.0116126477 10.4411469992 9.1020973718  
Ge -2.0163360250 8.1202898567 8.2777237635  
Ge 4.0279178286 6.9536687501 9.1071884375  
Ge -4.0221065680 11.5732099336 8.2757636029  
Ge -4.0126267931 18.5379112913 5.8095981022  
Ge -8.0155576354 16.1984563743 4.9892341528  
Ge -2.0130677212 15.0594855490 5.8163658160  
Ge -10.0508959241 19.6946904544 5.0033525066  
Ge -6.0023073816 15.0714064617 5.8382272712  
Ge -6.0354949751 19.6918946147 4.9827638962  
Ge -8.0313740115 18.5149325029 5.8155060851  
Ge -4.0295112597 16.2035297778 4.9896423304  
Ge -4.0182651036 13.8861452102 9.1077562354  
Ge -4.0216979486 18.5423238740 8.2855088881  
Ge -6.0125649129 17.3668558640 9.1053749521  
Ge -2.0154567072 15.0586631204 8.2857279985  
Ge -2.0221519935 17.3557464589 9.0855456887  
Ge -6.0366736972 15.0402422466 8.2854120313  
Ge 0.0010488467 13.9005256904 9.1005058819  
Ge -8.0122416405 18.5393684307 8.2834818923  
Ge 12.0251487205 4.6390534034 5.8365581068  
Ge 8.0341375814 2.3023239568 4.9905619113  
Ge 14.0641829864 1.1464979919 5.8368247606  
Ge 6.0145835550 5.7801052728 5.0185062735  
Ge 10.0419830982 1.1736495382 5.8095020729  
Ge 10.0429356852 5.8068622307 4.9975599592  
Ge 8.0249240932 4.6168985123 5.8267090955  
Ge 12.0352633889 2.3246269586 4.9989697293  
Ge 12.0396450080 0.0195794880 9.1006391997  
Ge 12.0476523913 4.6139217888 8.2755303729  
Ge 10.0208808096 3.4838729746 9.0798900419  
Ge 14.0369716103 1.1561946124 8.2924579627  
Ge 14.0505216893 3.4913030944 9.1005313904  
Ge 10.0444331415 1.1563435912 8.2762825664  
Ge 16.0704968919 0.0135755174 9.1044581505  
Ge 8.0451623958 4.6323389017 8.2775365335  
Ge 8.0360155861 11.5654122828 5.8221425654  
Ge 3.9995464839 9.2522967173 4.9992960901  
Ge 10.0161615608 8.1041115606 5.8167937955  
Ge 2.0116175747 12.7492400228 5.0154300983  
Ge 6.0151056457 8.1220556486 5.7992889345  
Ge 6.0142695020 12.7557898686 5.0048345035  
Ge 4.0203962237 11.5701099361 5.8062843724  
Ge 8.0268886388 9.2701167710 4.9899755057  
Ge 8.0126768598 6.9500542497 9.1136262376  
Ge 8.0211437913 11.5733092832 8.2663659929  
Ge 6.0301658269 10.4301431363 9.1024922133  
Ge 10.0352976579 8.1280189949 8.2601267762  
Ge 10.0427579011 10.4289762378 9.0994511482  
Ge 6.0386823456 8.1013801936 8.2625796558  
Ge 12.0238829715 6.9373713088 9.1126829413  
Ge 3.9964939445 11.5780144591 8.2914151784  
Ge 4.0296203571 18.5373544995 5.8072980466  
Ge -0.0134128724 16.2020994138 5.0170428843  
Ge 6.0005967036 15.0421765957 5.8300867229  
Ge -1.9909551719 19.6910675937 5.0065534657  
Ge 1.9971280684 15.0391423355 5.8197998681  
Ge 1.9943948879 19.6810012337 5.0097129745  
Ge 0.0112087474 18.5345662054 5.8073521105  
Ge 4.0033874517 16.2249646864 4.9940206004  
Ge 4.0147392337 13.8845799434 9.0763332961  
Ge 4.0103713941 18.5342808996 8.2625769754  
Ge 1.9979050631 17.3922631994 9.1125092032  
Ge 6.0133399629 15.0432374064 8.2936111688  
Ge 6.0222728431 17.3787036266 9.1047081071  
Ge 1.9925884649 15.0785344205 8.2658814883  
Ge 8.0336743548 13.9130762223 9.1113894332  
Ge -0.0066249006 18.5538395029 8.2853168714  
Ge 20.0513447240 4.6191596639 5.8151420532  
Ge 16.0409483191 2.2997559358 5.0188221478  
Ge 22.0711043561 1.1466555675 5.8037689544  
Ge 14.0309968707 5.8011566646 5.0012679412  
Ge 18.0617192991 1.1448666425 5.8048170293  
Ge 18.0465761701 5.7863921182 5.0186049757  
Ge 16.0581516582 4.6366919229 5.8160289958  
Ge 20.0542312462 2.3130737345 5.0111480586  
Ge 20.0546694247 -0.0171006871 9.0790966427  
Ge 20.0727407321 4.6499181297 8.2860065470  
Ge 18.0729326819 3.4569150443 9.0758079337  
Ge 22.0773716212 1.1565675793 8.2624973650  
Ge -1.9992411903 3.4849046425 9.0859121366  
Ge 18.0560624035 1.1693623387 8.2586682300  
Ge -0.0108240693 -0.0067172825 9.0927143347  
Ge 16.0566994922 4.6193938299 8.2594345755  
Ge 16.0698942852 11.5782324976 5.8220968015  
Ge 12.0241642470 9.2833889831 4.9954081054  
Ge 18.0719693929 8.1076939915 5.8095277088  
Ge 10.0264212966 12.7375933886 4.9866365534  
Ge 14.0336586566 8.1056534592 5.8232629947  
Ge 14.0486068646 12.7443046011 4.9939027970  
Ge 12.0576929026 11.5824740552 5.8059461525  
Ge 16.0689182780 9.2535555188 4.9891668736  
Ge 16.0427891659 6.9386256911 9.0951468845  
Ge 16.0676346862 11.5679690952 8.2714933447  
Ge 14.0440071442 10.4182785452 9.0809777538  
Ge 18.0400248656 8.0935251477 8.2915515821  
Ge -6.0060065245 10.4090935802 9.0885484220  
Ge 14.0454899560 8.0900428299 8.2926329469  
Ge -4.0315702648 6.9459568273 9.0773206274  
Ge 12.0237259831 11.5915589398 8.2611567250  
Ge 12.0431539836 18.5270436603 5.8323002169  
Ge 8.0084317008 16.1982966850 5.0045631510  
Ge 14.0627259728 15.0748221813 5.8122344991  
Ge 6.0021597121 19.7079023807 5.0136051890  
Ge 10.0130836650 15.0742118756 5.8360308913  
Ge 10.0371373419 19.7081825906 5.0169204619  
Ge 8.0318040536 18.5157624279 5.8361383337  
Ge 12.0208971847 16.2336692131 5.0173377734  
Ge 12.0291483922 13.9042533365 9.1018879348  
Ge 12.0287604342 18.5417543282 8.2622626211  
Ge 10.0434314525 17.3634397652 9.1140399522  
Ge 14.0331164890 15.0518038122 8.2764052223  
Ge -10.0178823141 17.3795862293 9.0890662763  
Ge 10.0185216022 15.0569938502 8.2913016165  
Ge -8.0227065636 13.8936156543 9.0852863069  
Ge 8.0238850554 18.5221311969 8.2582240284  

