! Header for PW + Phonopy

&CONTROL
    calculation   = 'scf'             ! Type of calculation: SCF 
    restart_mode  = 'from_scratch'    ! Start a new calculation
    prefix        = 'Ge_scf'          ! Prefix for output files (choose a descriptive name)
    pseudo_dir    = './'              ! Directory containing pseudopotential files (MODIFY AS NEEDED)
    outdir        = './Ge_out/'       ! Directory for output/temporary files (MUST EXIST)
    verbosity     = 'low'             ! Level of output detail ('low', 'medium', 'high')
    tprnfor       = .true.            ! Print forces
    tstress       = .true.            ! Print stress tensor
/

&SYSTEM
    ibrav         = 0                 ! 
    nat           = 126               ! Number of atoms in the primitive unit cell
    ntyp          = 1                 ! Number of types of atoms
    ecutwfc       = 60.0              ! Kinetic energy cutoff for wavefunctions (in Ry)
    occupations   = 'smearing'        ! Use smearing for occupations (good for convergence, essential for metals)
    smearing      = 'gaussian'        ! Type of smearing
    degauss       = 0.01              ! Smearing width (in Ry) - small value for semiconductors
/

&ELECTRONS
    mixing_mode   = 'plain'           ! Charge density mixing scheme
    mixing_beta   = 0.5               ! Mixing factor for density mixing
    conv_thr      = 1.0e-8            ! Convergence threshold for SCF total energy (in Ry/cell)
    diagonalization = 'david'         ! Algorithm for Hamiltonian diagonalization
/

&IONS
/

&CELL
/
