&CONTROL
   calculation      = 'scf'
   restart_mode     = 'from_scratch'
   tprnfor          = .true.
   outdir           = './out'
   prefix           = 'scf_efield'
   disk_io          = 'none'
   pseudo_dir       = './'
   lelfield         = .true.
/
&SYSTEM
   ibrav            = 0
   nat              = 6
   ntyp             = 2
   ecutwfc          = 60.0
/
&ELECTRONS
   conv_thr         = 1e-08
   mixing_beta      = 0.7
   diagonalization  = 'david'
   efield_cart(1)   = 0.0
   efield_cart(2)   = -0.001
   efield_cart(3)   = 0.0
   startingpot      = 'file'
/
&IONS
   ion_dynamics     = 'none'
/
&CELL
   cell_dynamics    = 'none'
/
&FCP
/
&RISM
/
ATOMIC_SPECIES
Ge 72.63 Ge.upf
O 15.999 O.upf

K_POINTS automatic
6 4 4  0 0 0

CELL_PARAMETERS angstrom
2.90488645100000 0.00000005800000 0.00000005800000
0.00000008500000 4.47231381000000 -0.00000025800000
0.00000008500000 -0.00000025800000 4.47231381000000

ATOMIC_POSITIONS angstrom
Ge 1.4540053401 2.2371190524 2.2371190524  
Ge 0.0017521523 0.0009678351 0.0009678351  
O 0.0016341598 3.1007234439 3.1007234439  
O 1.4540972023 3.6098489204 0.8646871120  
O 0.0016343308 1.3735841194 1.3735841194  
O 1.4540972023 0.8646871120 3.6098489204  

