&CONTROL
   calculation      = 'relax'
   restart_mode     = 'from_scratch'
   tstress          = .false.
   tprnfor          = .true.
   outdir           = './out'
   prefix           = 'ge'
   pseudo_dir       = './'
/
&SYSTEM
   ibrav            = 0
   ecutwfc          = 60.0
   occupations      = 'smearing'
   degauss          = 0.01
   smearing         = 'gaussian'
   ntyp             = 1
   nat              = 128
/
&ELECTRONS
   mixing_beta      = 0.4
/
&IONS
   ion_dynamics    = 'bfgs'
/
&CELL
/
&FCP
/
&RISM
/
ATOMIC_SPECIES
Ge 72.63 Ge.upf

K_POINTS gamma

CELL_PARAMETERS angstrom
16.05091020219588 0.00000000000000 0.00000000000000
0.00000000000000 16.05091324000000 0.00000000000000
0.00000000000000 0.00000000000000 19.93099471410881

ATOMIC_POSITIONS angstrom
Ge 2.0063641912 3.0095458538 6.4187135306  
Ge 0.0000001386 3.0095461063 5.0000000000  
Ge 0.0000009705 1.0031811937 9.2561405918  
Ge 2.0063644685 1.0031814463 7.8374270612  
Ge 2.0063653003 3.0095448437 12.0935676529  
Ge 0.0000012477 3.0095450963 10.6748541223  
Ge 0.0000020796 1.0031801837 14.9309947141  
Ge 2.0063655776 1.0031804363 13.5122811835  
Ge 2.0063641912 7.0222741637 6.4187135306  
Ge 0.0000001386 7.0222744163 5.0000000000  
Ge 0.0000009705 5.0159095037 9.2561405918  
Ge 2.0063644685 5.0159097563 7.8374270612  
Ge 2.0063653003 7.0222731537 12.0935676529  
Ge 0.0000012477 7.0222734063 10.6748541223  
Ge 0.0000020796 5.0159084937 14.9309947141  
Ge 2.0063655776 5.0159087463 13.5122811835  
Ge 2.0063641912 11.0350024737 6.4187135306  
Ge 0.0000001386 11.0350027263 5.0000000000  
Ge 0.0000009705 9.0286378137 9.2561405918  
Ge 2.0063644685 9.0286380663 7.8374270612  
Ge 2.0063653003 11.0350014637 12.0935676529  
Ge 0.0000012477 11.0350017163 10.6748541223  
Ge 0.0000020796 9.0286368037 14.9309947141  
Ge 2.0063655776 9.0286370563 13.5122811835  
Ge 2.0063641912 15.0477307837 6.4187135306  
Ge 0.0000001386 15.0477310363 5.0000000000  
Ge 0.0000009705 13.0413661238 9.2561405918  
Ge 2.0063644685 13.0413663763 7.8374270612  
Ge 2.0063653003 15.0477297737 12.0935676529  
Ge 0.0000012477 15.0477300263 10.6748541223  
Ge 0.0000020796 13.0413651137 14.9309947141  
Ge 2.0063655776 13.0413653662 13.5122811835  
Ge 6.0190917417 3.0095458538 6.4187135306  
Ge 4.0127276892 3.0095461063 5.0000000000  
Ge 4.0127285210 1.0031811937 9.2561405918  
Ge 6.0190920190 1.0031814463 7.8374270612  
Ge 6.0190928509 3.0095448437 12.0935676529  
Ge 4.0127287983 3.0095450963 10.6748541223  
Ge 4.0127296301 1.0031801837 14.9309947141  
Ge 6.0190931281 1.0031804363 13.5122811835  
Ge 6.0190917417 7.0222741637 6.4187135306  
Ge 4.0127276892 7.0222744163 5.0000000000  
Ge 4.0127285210 5.0159095037 9.2561405918  
Ge 6.0190920190 5.0159097563 7.8374270612  
Ge 6.0190928509 7.0222731537 12.0935676529  
Ge 4.0127287983 7.0222734063 10.6748541223  
Ge 4.0127296301 5.0159084937 14.9309947141  
Ge 6.0190931281 5.0159087463 13.5122811835  
Ge 6.0190917417 11.0350024737 6.4187135306  
Ge 4.0127276892 11.0350027263 5.0000000000  
Ge 4.0127285210 9.0286378137 9.2561405918  
Ge 6.0190920190 9.0286380663 7.8374270612  
Ge 6.0190928509 11.0350014637 12.0935676529  
Ge 4.0127287983 11.0350017163 10.6748541223  
Ge 4.0127296301 9.0286368037 14.9309947141  
Ge 6.0190931281 9.0286370563 13.5122811835  
Ge 6.0190917417 15.0477307837 6.4187135306  
Ge 4.0127276892 15.0477310363 5.0000000000  
Ge 4.0127285210 13.0413661238 9.2561405918  
Ge 6.0190920190 13.0413663763 7.8374270612  
Ge 6.0190928509 15.0477297737 12.0935676529  
Ge 4.0127287983 15.0477300263 10.6748541223  
Ge 4.0127296301 13.0413651137 14.9309947141  
Ge 6.0190931281 13.0413653662 13.5122811835  
Ge 10.0318192923 3.0095458538 6.4187135306  
Ge 8.0254552397 3.0095461063 5.0000000000  
Ge 8.0254560716 1.0031811937 9.2561405918  
Ge 10.0318195696 1.0031814463 7.8374270612  
Ge 10.0318204014 3.0095448437 12.0935676529  
Ge 8.0254563488 3.0095450963 10.6748541223  
Ge 8.0254571807 1.0031801837 14.9309947141  
Ge 10.0318206787 1.0031804363 13.5122811835  
Ge 10.0318192923 7.0222741637 6.4187135306  
Ge 8.0254552397 7.0222744163 5.0000000000  
Ge 8.0254560716 5.0159095037 9.2561405918  
Ge 10.0318195696 5.0159097563 7.8374270612  
Ge 10.0318204014 7.0222731537 12.0935676529  
Ge 8.0254563488 7.0222734063 10.6748541223  
Ge 8.0254571807 5.0159084937 14.9309947141  
Ge 10.0318206787 5.0159087463 13.5122811835  
Ge 10.0318192923 11.0350024737 6.4187135306  
Ge 8.0254552397 11.0350027263 5.0000000000  
Ge 8.0254560716 9.0286378137 9.2561405918  
Ge 10.0318195696 9.0286380663 7.8374270612  
Ge 10.0318204014 11.0350014637 12.0935676529  
Ge 8.0254563488 11.0350017163 10.6748541223  
Ge 8.0254571807 9.0286368037 14.9309947141  
Ge 10.0318206787 9.0286370563 13.5122811835  
Ge 10.0318192923 15.0477307837 6.4187135306  
Ge 8.0254552397 15.0477310363 5.0000000000  
Ge 8.0254560716 13.0413661238 9.2561405918  
Ge 10.0318195696 13.0413663763 7.8374270612  
Ge 10.0318204014 15.0477297737 12.0935676529  
Ge 8.0254563488 15.0477300263 10.6748541223  
Ge 8.0254571807 13.0413651137 14.9309947141  
Ge 10.0318206787 13.0413653662 13.5122811835  
Ge 14.0445468428 3.0095458538 6.4187135306  
Ge 12.0381827903 3.0095461063 5.0000000000  
Ge 12.0381836221 1.0031811937 9.2561405918  
Ge 14.0445471201 1.0031814463 7.8374270612  
Ge 14.0445479519 3.0095448437 12.0935676529  
Ge 12.0381838994 3.0095450963 10.6748541223  
Ge 12.0381847312 1.0031801837 14.9309947141  
Ge 14.0445482292 1.0031804363 13.5122811835  
Ge 14.0445468428 7.0222741637 6.4187135306  
Ge 12.0381827903 7.0222744163 5.0000000000  
Ge 12.0381836221 5.0159095037 9.2561405918  
Ge 14.0445471201 5.0159097563 7.8374270612  
Ge 14.0445479519 7.0222731537 12.0935676529  
Ge 12.0381838994 7.0222734063 10.6748541223  
Ge 12.0381847312 5.0159084937 14.9309947141  
Ge 14.0445482292 5.0159087463 13.5122811835  
Ge 14.0445468428 11.0350024737 6.4187135306  
Ge 12.0381827903 11.0350027263 5.0000000000  
Ge 12.0381836221 9.0286378137 9.2561405918  
Ge 14.0445471201 9.0286380663 7.8374270612  
Ge 14.0445479519 11.0350014637 12.0935676529  
Ge 12.0381838994 11.0350017163 10.6748541223  
Ge 12.0381847312 9.0286368037 14.9309947141  
Ge 14.0445482292 9.0286370563 13.5122811835  
Ge 14.0445468428 15.0477307837 6.4187135306  
Ge 12.0381827903 15.0477310363 5.0000000000  
Ge 12.0381836221 13.0413661238 9.2561405918  
Ge 14.0445471201 13.0413663763 7.8374270612  
Ge 14.0445479519 15.0477297737 12.0935676529  
Ge 12.0381838994 15.0477300263 10.6748541223  
Ge 12.0381847312 13.0413651137 14.9309947141  
Ge 14.0445482292 13.0413653662 13.5122811835  

