&CONTROL
   calculation      = 'relax'
   restart_mode     = 'from_scratch'
   tstress          = .false.
   tprnfor          = .true.
   outdir           = './out'
   prefix           = 'ge'
   pseudo_dir       = './'
/
&SYSTEM
   ibrav            = 0
   ecutwfc          = 60.0
   occupations      = 'smearing'
   degauss          = 0.01
   smearing         = 'gaussian'
   ntyp             = 1
   nat              = 16
/
&ELECTRONS
   mixing_beta      = 0.4
/
&IONS
   ion_dynamics     = 'bfgs'
/
&CELL
/
&FCP
/
&RISM
/
ATOMIC_SPECIES
Ge 72.63 Ge.upf

K_POINTS automatic
2 2 1  0 0 0

CELL_PARAMETERS angstrom
8.02545579513718 0.00000000000000 0.00000000000000
-4.01272789756859 6.95024859553784 0.00000000000000
0.00000000000000 0.00000000000000 14.09547326069757

ATOMIC_POSITIONS angstrom
Ge 4.0296036137 4.6273146087 5.8343039479  
Ge 0.0187767175 2.3207618345 5.0089992300  
Ge 6.0072975032 1.1757311704 5.8358404129  
Ge -2.0088223966 5.7951968481 4.9851205882  
Ge 1.9983505125 1.1690999191 5.8231721829  
Ge 2.0096733853 5.7873317281 4.9919765994  
Ge -0.0144166015 4.6516716566 5.8063086240  
Ge 4.0244568954 2.2989330358 5.0042381370  
Ge 3.9966687225 -0.0140438406 9.0942704411  
Ge 3.9977345760 4.6419186699 8.2897283792  
Ge 2.0244069707 3.4565008231 9.1135048855  
Ge 6.0035723195 1.1721725728 8.2927482385  
Ge -2.0225899858 3.4946752826 9.0789713959  
Ge 2.0211165675 1.1534943078 8.2871141327  
Ge -0.0002541104 0.0075223138 9.0956858963  
Ge 0.0166208828 4.6416197902 8.2912942117  

