&CONTROL
   calculation      = 'relax'
   restart_mode     = 'from_scratch'
   nstep            = 100
   tstress          = .false.
   tprnfor          = .true.
   outdir           = './out'
   prefix           = 'ge'
   pseudo_dir       = './'
/
&SYSTEM
   ibrav            = 0
   ecutwfc          = 60.0
   occupations      = 'smearing'
   degauss          = 0.01
   smearing         = 'gaussian'
   ntyp             = 1
   nat              = 16
/
&ELECTRONS
   mixing_beta      = 0.4
/
&IONS
   ion_dynamics     = 'bfgs'
/
&CELL
/
&FCP
/
&RISM
/
ATOMIC_SPECIES
Ge 72.63 Ge.upf

K_POINTS automatic
4 4 1  0 0 0

CELL_PARAMETERS angstrom
8.02545579513718 0.00000000000000 0.00000000000000
4.01272789756859 6.95024859553784 0.00000000000000
0.00000000000000 0.00000000000000 14.09547326069757

ATOMIC_POSITIONS angstrom
Ge 10.0242778212 5.8059182214 5.8041264808  
Ge 2.0164734611 1.1736377264 4.9879714181  
Ge 8.0412223408 2.3120244005 5.8057772770  
Ge 4.0047327653 4.6396309081 5.0075850092  
Ge 6.0178447911 5.8039210701 5.8244137812  
Ge 6.0254581941 1.1729106962 5.0142982999  
Ge 4.0207657948 2.3306274110 5.8316448738  
Ge 8.0298912669 4.6146632177 5.0095033800  
Ge 5.9991659229 3.4877214279 9.1101919521  
Ge 10.0500098254 5.7914684582 8.2894239972  
Ge 3.9969061692 -0.0070537443 9.0816884967  
Ge 8.0328415878 2.3202045194 8.2808586114  
Ge 2.0134764650 3.4705003644 9.0976463738  
Ge 6.0372012799 5.7751216644 8.2866697173  
Ge 0.0108411840 0.0058055368 9.1121387404  
Ge 4.0289598203 2.2991238180 8.2924020487  

