&CONTROL
   calculation      = 'relax'
   restart_mode     = 'from_scratch'
   tstress          = .false.
   tprnfor          = .true.
   outdir           = './out'
   prefix           = 'ge'
   pseudo_dir       = './'
/
&SYSTEM
   ibrav            = 0
   ecutwfc          = 60.0
   occupations      = 'smearing'
   degauss          = 0.01
   smearing         = 'gaussian'
   ntyp             = 1
   nat              = 32
/
&ELECTRONS
   mixing_beta      = 0.4
/
&IONS
   ion_dynamics     = 'bfgs'
/
&CELL
/
&FCP
/
&RISM
/
ATOMIC_SPECIES
Ge 72.63 Ge.upf

K_POINTS automatic
4 4 1  0 0 0

CELL_PARAMETERS angstrom
8.02545579513718 0.00000000000000 0.00000000000000
-4.01272789756859 6.95024859553784 0.00000000000000
0.00000000000000 0.00000000000000 20.64823047781368

ATOMIC_POSITIONS angstrom
Ge 4.0312275442 4.6270411440 5.8190466682  
Ge 0.0112348411 2.3106438143 5.0002183788  
Ge 6.0097438228 1.1614610273 5.8097910670  
Ge -2.0080000766 5.7974743026 5.0054267014  
Ge 2.0057074124 1.1662531594 5.8069783208  
Ge 2.0207586721 5.8063519917 5.0138806813  
Ge -0.0069958940 4.6459490840 5.8191896030  
Ge 4.0091639193 2.3052618722 4.9830801895  
Ge 4.0199426821 -0.0068240028 9.1021835453  
Ge 4.0219223068 4.6263837933 8.2947163132  
Ge 2.0230156690 3.4850850434 9.1046576065  
Ge 6.0146632436 1.1456757055 8.2604805229  
Ge -2.0115740046 3.4676775975 9.0955413424  
Ge 2.0145172063 1.1783202818 8.2777479283  
Ge 0.0180151284 0.0138891262 9.0868014231  
Ge 0.0041252481 4.6465880028 8.2670322683  
Ge -0.0060604091 2.3096178640 12.3681375571  
Ge 3.9988784119 -0.0048547108 11.5660850364  
Ge -1.9918540458 5.7901055513 12.3794703507  
Ge 2.0054226787 3.4685078322 11.5603007662  
Ge 2.0121075196 5.8112940800 12.3663884702  
Ge -2.0040648564 3.4950931338 11.5353846194  
Ge 4.0007702425 2.3118381322 12.3643439437  
Ge 0.0136229024 0.0006291640 11.5455170174  
Ge 3.9957458845 4.6230354598 15.6482981242  
Ge 0.0007270620 2.3009782570 14.8281232678  
Ge 6.0265850649 1.1748206922 15.6601013542  
Ge -1.9957218517 5.8066745885 14.8211286163  
Ge 2.0105736923 1.1722687135 15.6680801549  
Ge 2.0140832205 5.7794961233 14.8385628519  
Ge 0.0052880704 4.6289194622 15.6333900496  
Ge 4.0136850971 2.3332822064 14.8211292030  

