&CONTROL
   calculation      = 'relax'
   restart_mode     = 'from_scratch'
   tstress          = .false.
   tprnfor          = .true.
   outdir           = './out'
   prefix           = 'ge'
   pseudo_dir       = './'
/
&SYSTEM
   ibrav            = 0
   ecutwfc          = 60.0
   occupations      = 'smearing'
   degauss          = 0.01
   smearing         = 'gaussian'
   ntyp             = 1
   nat              = 144
/
&ELECTRONS
   mixing_beta      = 0.4
/
&IONS
   ion_dynamics     = 'bfgs'
/
&CELL
/
&FCP
/
&RISM
/
ATOMIC_SPECIES
Ge 72.63 Ge.upf

K_POINTS automatic
4 4 1  0 0 0

CELL_PARAMETERS angstrom
17.02456264456313 0.00000000000000 0.00000000000000
0.00000000000000 17.02456264456313 0.00000000000000
0.00000000000000 0.00000000000000 19.93099487599516

ATOMIC_POSITIONS angstrom
Ge -0.0030121569 2.8320709889 5.0180365042  
Ge 1.4221459719 4.2502003550 6.4249366270  
Ge 2.8209534811 0.0109606562 5.0119645710  
Ge 4.2676968354 1.4119430327 6.4199511085  
Ge -0.0088119304 0.0016895622 7.8439690050  
Ge 1.4356685596 1.4229372012 9.2562418146  
Ge 2.8349057722 2.8341298257 7.8236136531  
Ge 4.2441039039 4.2418585583 9.2460054233  
Ge 0.0013828562 2.8381498052 10.6722245224  
Ge 1.4112237285 4.2660141981 12.1130793965  
Ge 2.8541756828 -0.0063228121 10.6928465234  
Ge 4.2600353678 1.4326704404 12.0864382428  
Ge 0.0025186306 0.0007154897 13.5297902637  
Ge 1.3995535743 1.4324966066 14.9151667055  
Ge 2.8181266663 2.8464707417 13.5252862454  
Ge 4.2391099143 4.2392533374 14.9266614757  
Ge -0.0041941218 8.4970101309 4.9997043247  
Ge 1.4043636467 9.9223140713 6.4287927729  
Ge 2.8495508653 5.6632254010 5.0049151056  
Ge 4.2715243904 7.1062056858 6.4336528939  
Ge -0.0111907268 5.6568309600 7.8482802957  
Ge 1.4253963661 7.0941451226 9.2750900706  
Ge 2.8476622337 8.5052783223 7.8496059758  
Ge 4.2559388219 9.9446194867 9.2632476792  
Ge -0.0020577133 8.5312684564 10.6836520252  
Ge 1.4014673337 9.9486691732 12.0979242272  
Ge 2.8344050562 5.6724915688 10.6875452298  
Ge 4.2458572100 7.1111083225 12.1070021485  
Ge 0.0023317858 5.6764089828 13.5159263999  
Ge 1.4186930175 7.0869343381 14.9432193405  
Ge 2.8447799130 8.5121908050 13.5189140967  
Ge 4.2694046562 9.9508209401 14.9269107470  
Ge -0.0162258949 14.1744763141 4.9915086091  
Ge 1.4304769845 15.6133509048 6.4328216648  
Ge 2.8181700323 11.3333668131 5.0158945042  
Ge 4.2620465464 12.7560302894 6.4371685275  
Ge -0.0196680865 11.3625083480 7.8233976295  
Ge 1.4112179229 12.7523089228 9.2492186347  
Ge 2.8189787052 14.2021154162 7.8569830724  
Ge 4.2651847633 15.6207247618 9.2491208872  
Ge 0.0043362714 14.1780454072 10.6875175074  
Ge 1.4078652478 15.5997879577 12.0995463041  
Ge 2.8392467092 11.3685206203 10.6902804617  
Ge 4.2659974890 12.7722340785 12.0870953194  
Ge -0.0011587355 11.3482563472 13.4953098738  
Ge 1.4216665487 12.7820421800 14.9129656891  
Ge 2.8437173354 14.1938380205 13.4943602418  
Ge 4.2482944282 15.5915236035 14.9169655419  
Ge 5.6560218097 2.8386522667 5.0103384111  
Ge 7.0790044990 4.2443044815 6.4336066866  
Ge 8.5094566629 0.0154663976 5.0130710199  
Ge 9.9344316617 1.4343983286 6.4324539902  
Ge 5.6613861977 0.0019734096 7.8459715415  
Ge 7.0834464245 1.4380147161 9.2595528747  
Ge 8.5098916482 2.8463674822 7.8313163612  
Ge 9.9206619497 4.2550400750 9.2709060653  
Ge 5.6736615974 2.8255207525 10.6925298562  
Ge 7.0947330051 4.2592556741 12.1031203005  
Ge 8.5005232938 0.0177303546 10.6726431684  
Ge 9.9486883584 1.4333359618 12.0995197141  
Ge 5.6830033119 -0.0078490780 13.5212112162  
Ge 7.0801071123 1.3991405113 14.9358568532  
Ge 8.5130425059 2.8238854843 13.5091827018  
Ge 9.9283639873 4.2708715657 14.9387388533  
Ge 5.6584710508 8.4940880319 5.0165576243  
Ge 7.0971984464 9.9115134022 6.4323347918  
Ge 8.5247256100 5.6925105600 4.9877645548  
Ge 9.9500733515 7.0826705541 6.4312363345  
Ge 5.6610861398 5.6873917775 7.8339928888  
Ge 7.1032134896 7.0783587559 9.2719790270  
Ge 8.5051854280 8.5157120820 7.8512680571  
Ge 9.9495613166 9.9364808752 9.2601550035  
Ge 5.6920127631 8.5157182477 10.6716021171  
Ge 7.0826163424 9.9159376583 12.0751881856  
Ge 8.5172432079 5.6654395601 10.6738142533  
Ge 9.9423095390 7.0766266307 12.1086151571  
Ge 5.6566583808 5.6747247453 13.5303236129  
Ge 7.0811009395 7.0905276879 14.9202800353  
Ge 8.5281614544 8.5066815894 13.5026368115  
Ge 9.9204476310 9.9429135074 14.9464897845  
Ge 5.6759157777 14.1730561101 4.9844467460  
Ge 7.1021071094 15.5870345185 6.4184099544  
Ge 8.5192505202 11.3560648542 4.9836693670  
Ge 9.9208984788 12.7697643214 6.4364062910  
Ge 5.6908599811 11.3469807652 7.8551905961  
Ge 7.1113446546 12.7529492796 9.2738630971  
Ge 8.5098896053 14.2051547544 7.8428630654  
Ge 9.9252950462 15.6173397206 9.2630453418  
Ge 5.6636108149 14.1831341504 10.6896914728  
Ge 7.1124891654 15.6120845777 12.1045703053  
Ge 8.4979861502 11.3544079756 10.6864781761  
Ge 9.9137519016 12.7504701282 12.0900689835  
Ge 5.6759199322 11.3647146282 13.5020355573  
Ge 7.1102697601 12.7495081864 14.9175967744  
Ge 8.4953880773 14.2003590624 13.5124842265  
Ge 9.9325321632 15.5878102518 14.9293843689  
Ge 11.3535733595 2.8292531491 5.0034740402  
Ge 12.7738460322 4.2647610819 6.4356156747  
Ge 14.1855365782 -0.0080418413 5.0069701601  
Ge 15.6069499768 1.4007454005 6.4215807398  
Ge 11.3353482041 0.0016055342 7.8257822706  
Ge 12.7560517450 1.4032435197 9.2525511257  
Ge 14.1767492498 2.8229473887 7.8449143492  
Ge 15.6087695518 4.2692288225 9.2587050429  
Ge 11.3388150438 2.8503924688 10.6787107155  
Ge 12.7714287872 4.2566379313 12.1079657866  
Ge 14.1795270348 -0.0030467734 10.6858907792  
Ge 15.5974753170 1.4172955747 12.0976582595  
Ge 11.3555790800 -0.0034267465 13.5165666892  
Ge 12.7793988415 1.4286682909 14.9293989655  
Ge 14.1904414155 2.8187582614 13.5226144660  
Ge 15.6238000670 4.2391393831 14.9462528165  
Ge 11.3611590241 8.5047238118 4.9957924344  
Ge 12.7818006269 9.9177004910 6.4207911319  
Ge 14.1911683025 5.6827340773 4.9893992492  
Ge 15.5920553009 7.0945269582 6.4240065009  
Ge 11.3570963702 5.6682438912 7.8282412329  
Ge 12.7772135959 7.0857534717 9.2678179467  
Ge 14.1928188960 8.5086045779 7.8232879179  
Ge 15.6141242094 9.9132066563 9.2484883592  
Ge 11.3641698292 8.5049920068 10.6628163293  
Ge 12.7764801248 9.9262395975 12.0822249545  
Ge 14.1865953507 5.6903225515 10.6892137281  
Ge 15.6088726374 7.1017456614 12.0937476552  
Ge 11.3350738147 5.6804796907 13.5248057377  
Ge 12.7553817949 7.0993150444 14.9151381144  
Ge 14.1697107832 8.5134709679 13.5191956493  
Ge 15.6078388457 9.9402666827 14.9209627508  
Ge 11.3688332127 14.1947404477 4.9913200719  
Ge 12.7527040744 15.6211161302 6.4327306220  
Ge 14.1717233543 11.3440801478 5.0054205485  
Ge 15.5871655336 12.7863776959 6.4374935575  
Ge 11.3338338834 11.3578435296 7.8549316702  
Ge 12.7686374391 12.7603099446 9.2484145120  
Ge 14.1738336107 14.1816955367 7.8398891117  
Ge 15.6038703516 15.5881688787 9.2405532081  
Ge 11.3336702163 14.1811224402 10.6622601181  
Ge 12.7484816478 15.5926354054 12.0745795260  
Ge 14.1688987006 11.3444942963 10.6615011547  
Ge 15.6243563149 12.7758643052 12.1101243831  
Ge 11.3470058891 11.3680736840 13.4942556073  
Ge 12.7861431051 12.7660904058 14.9132624919  
Ge 14.1943136597 14.1797330816 13.5057775578  
Ge 15.6005776607 15.6137997204 14.9155979059  

