&CONTROL
   calculation      = 'relax'
   restart_mode     = 'from_scratch'
   tstress          = .false.
   tprnfor          = .true.
   outdir           = './out'
   prefix           = 'ge'
   pseudo_dir       = './'
/
&SYSTEM
   ibrav            = 0
   ecutwfc          = 60.0
   occupations      = 'smearing'
   degauss          = 0.01
   smearing         = 'gaussian'
   ntyp             = 1
   nat              = 64
/
&ELECTRONS
   mixing_beta      = 0.4
/
&IONS
   ion_dynamics     = 'bfgs'
/
&CELL
/
&FCP
/
&RISM
/
ATOMIC_SPECIES
Ge 72.63 Ge.upf

K_POINTS automatic
4 4 1  0 0 0

CELL_PARAMETERS angstrom
16.05091159027436 0.00000000000000 0.00000000000000
0.00000000000000 11.34970842970876 0.00000000000000
0.00000000000000 0.00000000000000 18.02545579513718

ATOMIC_POSITIONS angstrom
Ge -0.0127427071 2.8540597277 5.0080262986  
Ge -0.0134906768 1.3987223480 6.9940677271  
Ge 6.0013122589 0.0084727885 6.9948777909  
Ge 1.9978817595 4.2503752989 4.9819804967  
Ge 2.0254371450 0.0105044662 7.0223801560  
Ge 6.0051816512 4.2477672981 4.9872838989  
Ge 4.0292359870 2.8462008222 13.0287169740  
Ge 4.0059901336 1.4041515571 7.0133073917  
Ge 4.0072770470 2.8320438583 8.9991941998  
Ge 4.0173118041 1.4367403782 11.0348578701  
Ge 1.9885772893 5.6607298035 11.0312458051  
Ge 6.0217565186 4.2481083779 9.0018573743  
Ge 6.0216243453 5.6577050882 11.0364882269  
Ge 2.0178837689 4.2422692210 9.0200499846  
Ge 0.0191531385 2.8196081066 8.9973884662  
Ge 0.0049497317 1.4376261044 11.0178654627  
Ge 0.0040501006 8.4946491714 4.9916414589  
Ge -0.0149981908 7.0895327887 7.0172769348  
Ge 6.0221986445 5.6688974312 6.9915579663  
Ge 2.0039380436 9.9409876828 5.0044669315  
Ge 1.9966596982 5.6825814711 7.0056253048  
Ge 6.0137046647 9.9306608106 5.0165244621  
Ge 4.0208341366 8.5215718036 13.0137906868  
Ge 4.0209612165 7.0781456490 7.0232918652  
Ge 4.0246056195 8.5208316046 8.9980728309  
Ge 4.0014253350 7.0896526126 11.0057380265  
Ge 2.0179390366 0.0036743888 11.0198271046  
Ge 6.0112692446 9.9238236904 9.0069813548  
Ge 6.0231026363 -0.0142594934 11.0238504114  
Ge 1.9900082748 9.9218921860 9.0165654420  
Ge -0.0134826909 8.5166255522 8.9985080749  
Ge 0.0145341414 7.0996309379 11.0010615914  
Ge 8.0383291146 2.8199444930 4.9970010805  
Ge 8.0295648663 1.4041260450 6.9980442847  
Ge 14.0437550061 0.0022335291 7.0063092963  
Ge 10.0467547704 4.2504011872 4.9854335158  
Ge 10.0451619229 0.0110181951 6.9962334610  
Ge 14.0645128240 4.2657396693 5.0182437474  
Ge 12.0575677268 2.8358684369 13.0292105632  
Ge 12.0363584802 1.4357454917 6.9924088001  
Ge 12.0570459629 2.8558828498 9.0064461350  
Ge 12.0412717944 1.4114909930 11.0153753499  
Ge 10.0363516553 5.6837985042 11.0121294657  
Ge 14.0305295731 4.2558236388 9.0044299910  
Ge 14.0500617507 5.6738390172 11.0199633656  
Ge 10.0295573361 4.2549381899 9.0122538992  
Ge 8.0165967851 2.8241212872 9.0031079210  
Ge 8.0066351341 1.4285145637 11.0158803225  
Ge 8.0230130112 8.5009576818 5.0090029638  
Ge 8.0138164245 7.1063324473 7.0206947186  
Ge 14.0433060103 5.6732819523 7.0093556159  
Ge 10.0418870830 9.9432075225 5.0183345860  
Ge 10.0291951195 5.6886738648 7.0168126207  
Ge 14.0432518207 9.9385288977 4.9876093460  
Ge 12.0321088870 8.5184897063 13.0203691370  
Ge 12.0432483542 7.0767898071 6.9958798134  
Ge 12.0184318304 8.5185282000 9.0294358722  
Ge 12.0505459324 7.0945649291 11.0369641695  
Ge 10.0350939032 0.0079466753 11.0210466198  
Ge 14.0552517579 9.9281568488 9.0257892252  
Ge 14.0439952157 0.0129525901 11.0055341701  
Ge 10.0270074038 9.9407727629 8.9966265542  
Ge 8.0267600399 8.4923923116 9.0076101126  
Ge 8.0149606423 7.1021390015 11.0341294239  

