&CONTROL
   calculation      = 'scf'
   restart_mode     = 'from_scratch'
   tstress          = .true.
   tprnfor          = .true.
   outdir           = './out'
   prefix           = 'ge'
   pseudo_dir       = './'
/
&SYSTEM
   ibrav            = 0
   ecutwfc          = 60.0
   occupations      = 'smearing'
   degauss          = 0.01
   smearing         = 'gaussian'
   ntyp             = 1
   nat              = 2
/
&ELECTRONS
   mixing_mode      = 'plain'
   mixing_beta      = 0.4
/
&IONS
/
&CELL
/
&FCP
/
&RISM
/
ATOMIC_SPECIES
Ge 72.63 Ge.upf

K_POINTS automatic
8 8 8  0 0 0

CELL_PARAMETERS angstrom
-2.82877000000000 -2.82877000000000 0.00000000000000
-2.82877000000000 0.00000000000000 -2.82877000000000
-0.00000000000000 -2.82877000000000 -2.82877000000000

ATOMIC_POSITIONS angstrom
Ge 0.0000000000 0.0000000000 0.0000000000  
Ge -4.2431550000 -4.2431550000 -4.2431550000  

