&CONTROL
   calculation      = 'scf'
   restart_mode     = 'from_scratch'
   tstress          = .false.
   tprnfor          = .true.
   outdir           = './tmp_2_2_-1'
   prefix           = 'atom_2_dir_2_-1'
   disk_io          = 'none'
   pseudo_dir       = './'
/
&SYSTEM
   nat              = 6
   ntyp             = 2
   ecutwfc          = 60.0
   ibrav            = 0
/
&ELECTRONS
   conv_thr         = 1e-08
   mixing_mode      = 'plain'
   mixing_beta      = 0.5
/
&IONS
/
&CELL
/
&FCP
/
&RISM
/
ATOMIC_SPECIES
O 15.999 O.upf
H 1.008 H.upf

K_POINTS gamma

CELL_PARAMETERS angstrom
11.99999967997446 0.00000000000000 0.00000000000000
0.00000000000000 11.99999967997446 0.00000000000000
0.00000000000000 0.00000000000000 11.99999967997446

ATOMIC_POSITIONS angstrom
O -3.0045052439 1.3036966344 -0.0579386189  
H -2.0625449037 1.1494114139 0.1554444814  
H -3.4594132881 0.5477626786 0.3316815820  
O -0.1957387653 1.0906727756 0.5103049063  
H 0.3139209594 1.1423220258 -0.3090492905  
H 0.0553182417 1.8810837765 1.0066847677  

