&CONTROL
   calculation      = 'scf'
   restart_mode     = 'from_scratch'
   tstress          = .true.
   tprnfor          = .true.
   outdir           = './out'
   prefix           = 'ge'
   pseudo_dir       = './'
/
&SYSTEM
   ibrav            = 0
   ecutwfc          = 60.0
   occupations      = 'smearing'
   degauss          = 0.01
   smearing         = 'gaussian'
   ntyp             = 1
   nat              = 2
/
&ELECTRONS
   mixing_beta      = 0.4
/
&IONS
/
&CELL
/
&FCP
/
&RISM
/
ATOMIC_SPECIES
Ge 72.63 Ge.upf

K_POINTS automatic
8 8 8  0 0 0

CELL_PARAMETERS angstrom
3.47512448000000 0.00000000000000 2.00636466000000
1.15837483000000 3.27637810000000 2.00636466000000
0.00000000000000 0.00000000000000 4.01272831000000

ATOMIC_POSITIONS angstrom
Ge 4.0543118962 2.8668308375 7.0222754263  
Ge 0.5791874137 0.4095472625 1.0031822038  

