
     Program PWSCF v.7.2 starts on 20May2026 at 12:57: 5 

     This program is part of the open-source Quantum ESPRESSO suite
     for quantum simulation of materials; please cite
         "P. Giannozzi et al., J. Phys.:Condens. Matter 21 395502 (2009);
         "P. Giannozzi et al., J. Phys.:Condens. Matter 29 465901 (2017);
         "P. Giannozzi et al., J. Chem. Phys. 152 154105 (2020);
          URL http://www.quantum-espresso.org", 
     in publications or presentations arising from this work. More details at
     http://www.quantum-espresso.org/quote

     Parallel version (MPI), running on    24 processors

     MPI processes distributed on     1 nodes
     105705 MiB available memory on the printing compute node when the environment starts

     Waiting for input...
     Reading input from standard input
Warning: card &CELL ignored
Warning: card / ignored

     Current dimensions of program PWSCF are:
     Max number of different atomic species (ntypx) = 10
     Max number of k-points (npk) =  40000
     Max angular momentum in pseudopotentials (lmaxx) =  4

     gamma-point specific algorithms are used
     Message from routine setup:
     using ibrav=0 with symmetry is DISCOURAGED, use correct ibrav instead

     R & G space division:  proc/nbgrp/npool/nimage =      24
     Subspace diagonalization in iterative solution of the eigenvalue problem:
     one sub-group per band group will be used
     custom distributed-memory algorithm (size of sub-group:  4*  4 procs)


     Parallelization info
     --------------------
     sticks:   dense  smooth     PW     G-vecs:    dense   smooth      PW
     Min         375     375     92                26968    26968    3356
     Max         378     378     94                26974    26974    3374
     Sum        9041    9041   2249               647299   647299   80797

     Using Slab Decomposition



     bravais-lattice index     =            0
     lattice parameter (alat)  =      21.7696  a.u.
     unit-cell volume          =   10317.0146 (a.u.)^3
     number of atoms/cell      =           64
     number of atomic types    =            1
     number of electrons       =       896.00
     number of Kohn-Sham states=          538
     kinetic-energy cutoff     =      60.0000  Ry
     charge density cutoff     =     240.0000  Ry
     scf convergence threshold =      1.0E-08
     mixing beta               =       0.5000
     number of iterations used =            8  plain     mixing
     Exchange-correlation= PBE
                           (   1   4   3   4   0   0   0)

     celldm(1)=  21.769645  celldm(2)=   0.000000  celldm(3)=   0.000000
     celldm(4)=   0.000000  celldm(5)=   0.000000  celldm(6)=   0.000000

     crystal axes: (cart. coord. in units of alat)
               a(1) = (   1.000000   0.000000   0.000000 )  
               a(2) = (   0.000000   1.000000   0.000000 )  
               a(3) = (   0.000000   0.000000   1.000000 )  

     reciprocal axes: (cart. coord. in units 2 pi/alat)
               b(1) = (  1.000000  0.000000  0.000000 )  
               b(2) = (  0.000000  1.000000  0.000000 )  
               b(3) = (  0.000000  0.000000  1.000000 )  


     PseudoPot. # 1 for Ge read from file:
     ./Ge.upf
     MD5 check sum: 087fa14d6c89b52166990835c3b338da
     Pseudo is Norm-conserving + core correction, Zval = 14.0
     Generated using ONCVPSP code by D. R. Hamann
     Using radial grid of 1560 points,  6 beta functions with: 
                l(1) =   0
                l(2) =   0
                l(3) =   1
                l(4) =   1
                l(5) =   2
                l(6) =   2

     atomic species   valence    mass     pseudopotential
        Ge            14.00    72.64000     Ge( 1.00)

      4 Sym. Ops. (no inversion) found



   Cartesian axes

     site n.     atom                  positions (alat units)
         1           Ge  tau(   1) = (   0.0009187   0.0000000   0.0000000  )
         2           Ge  tau(   2) = (   0.5000000   0.0000000   0.0000000  )
         3           Ge  tau(   3) = (   0.0000000   0.5000000   0.0000000  )
         4           Ge  tau(   4) = (   0.5000000   0.5000000   0.0000000  )
         5           Ge  tau(   5) = (   0.0000000   0.0000000   0.5000000  )
         6           Ge  tau(   6) = (   0.5000000   0.0000000   0.5000000  )
         7           Ge  tau(   7) = (   0.0000000   0.5000000   0.5000000  )
         8           Ge  tau(   8) = (   0.5000000   0.5000000   0.5000000  )
         9           Ge  tau(   9) = (   0.1250000   0.1250000   0.1250000  )
        10           Ge  tau(  10) = (   0.6250000   0.1250000   0.1250000  )
        11           Ge  tau(  11) = (   0.1250000   0.6250000   0.1250000  )
        12           Ge  tau(  12) = (   0.6250000   0.6250000   0.1250000  )
        13           Ge  tau(  13) = (   0.1250000   0.1250000   0.6250000  )
        14           Ge  tau(  14) = (   0.6250000   0.1250000   0.6250000  )
        15           Ge  tau(  15) = (   0.1250000   0.6250000   0.6250000  )
        16           Ge  tau(  16) = (   0.6250000   0.6250000   0.6250000  )
        17           Ge  tau(  17) = (   0.2500000   0.2500000   0.0000000  )
        18           Ge  tau(  18) = (   0.7500000   0.2500000   0.0000000  )
        19           Ge  tau(  19) = (   0.2500000   0.7500000   0.0000000  )
        20           Ge  tau(  20) = (   0.7500000   0.7500000   0.0000000  )
        21           Ge  tau(  21) = (   0.2500000   0.2500000   0.5000000  )
        22           Ge  tau(  22) = (   0.7500000   0.2500000   0.5000000  )
        23           Ge  tau(  23) = (   0.2500000   0.7500000   0.5000000  )
        24           Ge  tau(  24) = (   0.7500000   0.7500000   0.5000000  )
        25           Ge  tau(  25) = (   0.3750000   0.3750000   0.1250000  )
        26           Ge  tau(  26) = (   0.8750000   0.3750000   0.1250000  )
        27           Ge  tau(  27) = (   0.3750000   0.8750000   0.1250000  )
        28           Ge  tau(  28) = (   0.8750000   0.8750000   0.1250000  )
        29           Ge  tau(  29) = (   0.3750000   0.3750000   0.6250000  )
        30           Ge  tau(  30) = (   0.8750000   0.3750000   0.6250000  )
        31           Ge  tau(  31) = (   0.3750000   0.8750000   0.6250000  )
        32           Ge  tau(  32) = (   0.8750000   0.8750000   0.6250000  )
        33           Ge  tau(  33) = (   0.2500000   0.0000000   0.2500000  )
        34           Ge  tau(  34) = (   0.7500000   0.0000000   0.2500000  )
        35           Ge  tau(  35) = (   0.2500000   0.5000000   0.2500000  )
        36           Ge  tau(  36) = (   0.7500000   0.5000000   0.2500000  )
        37           Ge  tau(  37) = (   0.2500000   0.0000000   0.7500000  )
        38           Ge  tau(  38) = (   0.7500000   0.0000000   0.7500000  )
        39           Ge  tau(  39) = (   0.2500000   0.5000000   0.7500000  )
        40           Ge  tau(  40) = (   0.7500000   0.5000000   0.7500000  )
        41           Ge  tau(  41) = (   0.3750000   0.1250000   0.3750000  )
        42           Ge  tau(  42) = (   0.8750000   0.1250000   0.3750000  )
        43           Ge  tau(  43) = (   0.3750000   0.6250000   0.3750000  )
        44           Ge  tau(  44) = (   0.8750000   0.6250000   0.3750000  )
        45           Ge  tau(  45) = (   0.3750000   0.1250000   0.8750000  )
        46           Ge  tau(  46) = (   0.8750000   0.1250000   0.8750000  )
        47           Ge  tau(  47) = (   0.3750000   0.6250000   0.8750000  )
        48           Ge  tau(  48) = (   0.8750000   0.6250000   0.8750000  )
        49           Ge  tau(  49) = (   0.0000000   0.2500000   0.2500000  )
        50           Ge  tau(  50) = (   0.5000000   0.2500000   0.2500000  )
        51           Ge  tau(  51) = (   0.0000000   0.7500000   0.2500000  )
        52           Ge  tau(  52) = (   0.5000000   0.7500000   0.2500000  )
        53           Ge  tau(  53) = (   0.0000000   0.2500000   0.7500000  )
        54           Ge  tau(  54) = (   0.5000000   0.2500000   0.7500000  )
        55           Ge  tau(  55) = (   0.0000000   0.7500000   0.7500000  )
        56           Ge  tau(  56) = (   0.5000000   0.7500000   0.7500000  )
        57           Ge  tau(  57) = (   0.1250000   0.3750000   0.3750000  )
        58           Ge  tau(  58) = (   0.6250000   0.3750000   0.3750000  )
        59           Ge  tau(  59) = (   0.1250000   0.8750000   0.3750000  )
        60           Ge  tau(  60) = (   0.6250000   0.8750000   0.3750000  )
        61           Ge  tau(  61) = (   0.1250000   0.3750000   0.8750000  )
        62           Ge  tau(  62) = (   0.6250000   0.3750000   0.8750000  )
        63           Ge  tau(  63) = (   0.1250000   0.8750000   0.8750000  )
        64           Ge  tau(  64) = (   0.6250000   0.8750000   0.8750000  )

     number of k points=     1  Gaussian smearing, width (Ry)=  0.0100
                       cart. coord. in units 2pi/alat
        k(    1) = (   0.0000000   0.0000000   0.0000000), wk =   2.0000000

     Dense  grid:   323650 G-vectors     FFT dimensions: ( 108, 108, 108)

     Estimated max dynamical RAM per process >     116.08 MB

     Estimated total dynamical RAM >       2.72 GB

     Initial potential from superposition of free atoms

     starting charge     895.9473, renormalised to     896.0000
     Starting wfcs are  576 randomized atomic wfcs

     total cpu time spent up to now is        2.1 secs

     Self-consistent Calculation

     iteration #  1     ecut=    60.00 Ry     beta= 0.50
     Davidson diagonalization with overlap
     ethr =  1.00E-02,  avg # of iterations =  4.0

     Threshold (ethr) on eigenvalues was too large:
     Diagonalizing with lowered threshold

     Davidson diagonalization with overlap
     ethr =  1.20E-04,  avg # of iterations =  4.0

     total cpu time spent up to now is       12.1 secs

     total energy              =  -11430.34742493 Ry
     estimated scf accuracy    <       1.18273122 Ry

     iteration #  2     ecut=    60.00 Ry     beta= 0.50
     Davidson diagonalization with overlap
     ethr =  1.32E-04,  avg # of iterations =  1.0

     total cpu time spent up to now is       15.3 secs

     total energy              =  -11430.34052131 Ry
     estimated scf accuracy    <       0.21966499 Ry

     iteration #  3     ecut=    60.00 Ry     beta= 0.50
     Davidson diagonalization with overlap
     ethr =  2.45E-05,  avg # of iterations =  9.0

     total cpu time spent up to now is       20.2 secs

     total energy              =  -11430.35714204 Ry
     estimated scf accuracy    <       0.00368311 Ry

     iteration #  4     ecut=    60.00 Ry     beta= 0.50
     Davidson diagonalization with overlap
     ethr =  4.11E-07,  avg # of iterations = 25.0

     total cpu time spent up to now is       33.1 secs

     total energy              =  -11430.35765688 Ry
     estimated scf accuracy    <       0.00102458 Ry

     iteration #  5     ecut=    60.00 Ry     beta= 0.50
     Davidson diagonalization with overlap
     ethr =  1.14E-07,  avg # of iterations =  3.0

     total cpu time spent up to now is       37.0 secs

     total energy              =  -11430.35775780 Ry
     estimated scf accuracy    <       0.00136201 Ry

     iteration #  6     ecut=    60.00 Ry     beta= 0.50
     Davidson diagonalization with overlap
     ethr =  1.14E-07,  avg # of iterations =  2.0

     total cpu time spent up to now is       40.6 secs

     total energy              =  -11430.35792785 Ry
     estimated scf accuracy    <       0.00008984 Ry

     iteration #  7     ecut=    60.00 Ry     beta= 0.50
     Davidson diagonalization with overlap
     ethr =  1.00E-08,  avg # of iterations =  4.0

     total cpu time spent up to now is       44.6 secs

     total energy              =  -11430.35794564 Ry
     estimated scf accuracy    <       0.00001642 Ry

     iteration #  8     ecut=    60.00 Ry     beta= 0.50
     Davidson diagonalization with overlap
     ethr =  1.83E-09,  avg # of iterations =  2.0

     total cpu time spent up to now is       48.3 secs

     total energy              =  -11430.35794768 Ry
     estimated scf accuracy    <       0.00000129 Ry

     iteration #  9     ecut=    60.00 Ry     beta= 0.50
     Davidson diagonalization with overlap
     ethr =  1.44E-10,  avg # of iterations =  4.0

     total cpu time spent up to now is       52.3 secs

     total energy              =  -11430.35794797 Ry
     estimated scf accuracy    <       0.00000030 Ry

     iteration # 10     ecut=    60.00 Ry     beta= 0.50
     Davidson diagonalization with overlap
     ethr =  3.35E-11,  avg # of iterations =  4.0

     total cpu time spent up to now is       57.0 secs

     total energy              =  -11430.35794808 Ry
     estimated scf accuracy    <       0.00000029 Ry

     iteration # 11     ecut=    60.00 Ry     beta= 0.50
     Davidson diagonalization with overlap
     ethr =  3.24E-11,  avg # of iterations =  3.0

     total cpu time spent up to now is       60.9 secs

     total energy              =  -11430.35794815 Ry
     estimated scf accuracy    <       0.00000005 Ry

     iteration # 12     ecut=    60.00 Ry     beta= 0.50
     Davidson diagonalization with overlap
     ethr =  5.64E-12,  avg # of iterations =  2.0

     total cpu time spent up to now is       64.6 secs

     End of self-consistent calculation

          k = 0.0000 0.0000 0.0000 ( 40399 PWs)   bands (ev):

   -16.0216 -16.0210 -16.0210 -16.0208 -16.0208 -16.0207 -16.0207 -16.0207
   -16.0206 -16.0206 -16.0205 -16.0203 -16.0185 -16.0182 -16.0181 -16.0180
   -16.0180 -16.0179 -16.0179 -16.0179 -16.0179 -16.0178 -16.0176 -16.0174
   -16.0147 -16.0146 -16.0144 -16.0143 -16.0143 -16.0143 -16.0142 -16.0142
   -16.0142 -16.0141 -16.0140 -16.0137 -16.0039 -16.0033 -16.0033 -16.0033
   -16.0032 -16.0029 -16.0026 -16.0024 -16.0023 -16.0022 -16.0022 -16.0022
   -16.0022 -16.0021 -16.0021 -16.0020 -16.0019 -16.0018 -16.0018 -16.0017
   -16.0017 -16.0016 -16.0014 -16.0014 -16.0012 -16.0007 -15.9938 -15.9938
   -15.9937 -15.9809 -15.9808 -15.9807 -15.9807 -15.9807 -15.9806 -15.9750
   -15.9750 -15.9650 -15.9648 -15.9648 -15.9646 -15.9453 -15.9451 -15.9450
   -15.9450 -15.9450 -15.9450 -15.9448 -15.9448 -15.9448 -15.9448 -15.9446
   -15.9444 -15.9321 -15.9321 -15.9320 -15.9320 -15.9319 -15.9318 -15.9231
   -15.9229 -15.9228 -15.9228 -15.9227 -15.9225 -15.9147 -15.9147 -15.9147
   -15.9147 -15.9142 -15.9142 -15.9142 -15.9142 -15.9117 -15.9116 -15.9116
   -15.9116 -15.9114 -15.9114 -15.9113 -15.9112 -15.9110 -15.9110 -15.9110
   -15.9110 -15.8999 -15.8999 -15.8998 -15.8997 -15.8997 -15.8996 -15.8996
   -15.8996 -15.8996 -15.8995 -15.8994 -15.8993 -15.8917 -15.8916 -15.8916
   -15.8915 -15.8915 -15.8914 -15.8872 -15.8872 -15.8872 -15.8871 -15.8870
   -15.8869 -15.8868 -15.8868 -15.8867 -15.8866 -15.8866 -15.8865 -15.8614
   -15.8612 -15.8611 -15.8611 -15.8610 -15.8610 -15.8610 -15.8610 -15.8610
   -15.8609 -15.8609 -15.8606 -15.8452 -15.8451 -15.8450 -15.8450 -15.8449
   -15.8447 -15.8379 -15.8379 -15.8378 -15.8378 -15.8378 -15.8378 -15.8290
   -15.8289 -15.8288 -15.8288 -15.8287 -15.8286 -15.8286 -15.8286 -15.8285
   -15.8285 -15.8284 -15.8283 -15.8283 -15.8282 -15.8282 -15.8281 -15.8281
   -15.8281 -15.8281 -15.8281 -15.8280 -15.8280 -15.8280 -15.8277 -15.8110
   -15.8110 -15.8109 -15.8109 -15.8108 -15.8108 -15.8088 -15.8088 -15.8087
   -15.8087 -15.8087 -15.8086 -15.8085 -15.8085 -15.8085 -15.8084 -15.8084
   -15.8083 -15.8029 -15.8028 -15.8028 -15.8027 -15.8027 -15.8026 -15.8025
   -15.8025 -15.8024 -15.8024 -15.8023 -15.8023 -15.7998 -15.7998 -15.7998
   -15.7997 -15.7994 -15.7994 -15.7994 -15.7993 -15.7938 -15.7937 -15.7936
   -15.7903 -15.7902 -15.7900 -15.7899 -15.7844 -15.7843 -15.7842 -15.7842
   -15.7841 -15.7840 -15.7702 -15.7702 -15.7499 -15.7499 -15.7498 -15.7498
   -15.7497 -15.7497 -15.7392 -15.7392 -15.7390 -15.7389 -15.7389 -15.7389
   -15.7389 -15.7389 -15.7389 -15.7388 -15.7387 -15.7386 -15.7265 -15.7265
   -15.7264 -15.7264 -15.7264 -15.7263 -15.7263 -15.7263 -15.7263 -15.7262
   -15.7262 -15.7261 -15.7229 -15.7228 -15.7228 -15.7227 -15.7226 -15.7225
   -15.7225 -15.7224 -15.7167 -15.7167 -15.7166 -15.7166 -15.7166 -15.7165
   -15.7165 -15.7164 -15.7164 -15.7164 -15.7163 -15.7162 -15.7096 -15.7096
   -15.7096 -15.7095 -15.7095 -15.7094 -15.7094 -15.7094 -15.7093 -15.7093
   -15.7093 -15.7092 -15.7080 -15.7080 -15.7079 -15.7078 -15.7077 -15.7077
    -3.5332  -2.5759  -2.5743  -2.5740  -2.5740  -2.5736  -2.5720  -1.7547
    -1.7518  -1.7506  -1.7506  -1.7506  -1.7505  -1.7505  -1.7504  -1.7504
    -1.7504  -1.7492  -1.7464  -1.5731  -1.5725  -1.5714  -1.5707   0.1491
     0.1502   0.1513   0.1513   0.1523   0.1533   0.2300   0.2319   0.2338
     0.2338   0.2340   0.2340   0.2340   0.2340   0.2342   0.2342   0.2361
     0.2382   1.4770   1.4781   1.4786   1.4796   2.4087   2.4097   2.4119
     2.4121   2.4121   2.4122   2.4122   2.4123   2.4123   2.4124   2.4146
     2.4157   4.1037   4.1039   4.1052   4.1052   4.1065   4.1067   5.1823
     5.1836   5.1841   5.1841   5.1843   5.1845   5.1845   5.1846   5.1848
     5.1848   5.1852   5.1864   5.2115   5.2116   5.2119   5.2129   5.2130
     5.2130   5.2131   5.2131   5.2132   5.2143   5.2146   5.2149   5.9488
     5.9496   5.9496   5.9496   5.9497   5.9505   6.9306   6.9327   6.9336
     6.9338   6.9338   6.9338   6.9338   6.9338   6.9338   6.9339   6.9348
     6.9369   7.4253   7.4270   7.4281   7.4285   7.4286   7.4286   7.4287
     7.4287   7.4288   7.4292   7.4303   7.4319   7.5175   7.5191   7.5193
     7.5197   7.5198   7.5202   7.5205   7.5222   8.3947   8.8454   8.8467
     8.8479   8.8657   8.8661   8.8666   8.8670   9.6560   9.6567   9.6576
     9.6576   9.6586   9.6593   9.9012   9.9019   9.9030   9.9030   9.9040
     9.9047  10.6875  10.6884  10.6899  10.6901  10.6902  10.6903  10.6903
    10.6904  10.6906  10.6907  10.6922  10.6932  11.3618  11.3629  11.3641
    11.4435  11.4438  11.4444  11.4444  11.4451  11.4454  12.5505  12.5508
    12.5526  12.5528  12.5529  12.5530  12.5548  12.5551  12.9479  12.9483
    12.9499  12.9502  12.9504  12.9504  12.9505  12.9505  12.9507  12.9510
    12.9526  12.9530  13.5028  13.5047  13.5067  13.5068  13.5073  13.5073
    13.5073  13.5073  13.5078  13.5078  13.5093  13.5109  13.5262  13.5266
    13.5272  13.5280  13.5281  13.5282  13.5283  13.5284  13.5285  13.5298
    13.5299  13.5311  13.7765  13.7774  13.7785  13.7789  13.7789  13.7790
    13.7797  13.7799

     the Fermi energy is     8.8032 ev

!    total energy              =  -11430.35794815 Ry
     estimated scf accuracy    <          4.4E-09 Ry
     smearing contrib. (-TS)   =      -0.03347582 Ry
     internal energy E=F+TS    =  -11430.32447233 Ry

     The total energy is F=E-TS. E is the sum of the following terms:
     one-electron contribution =   -6041.85682788 Ry
     hartree contribution      =    3610.65508227 Ry
     xc contribution           =   -2791.21510750 Ry
     ewald contribution        =   -6207.90761922 Ry

     convergence has been achieved in  12 iterations

     Forces acting on atoms (cartesian axes, Ry/au):

     atom    1 type  1   force =    -0.00379493    0.00000000    0.00000000
     atom    2 type  1   force =     0.00005476    0.00000000    0.00000000
     atom    3 type  1   force =     0.00003511    0.00000000    0.00000000
     atom    4 type  1   force =     0.00015938    0.00000000    0.00000000
     atom    5 type  1   force =     0.00003511    0.00000000    0.00000000
     atom    6 type  1   force =     0.00015938    0.00000000    0.00000000
     atom    7 type  1   force =     0.00009337    0.00000000    0.00000000
     atom    8 type  1   force =     0.00009896    0.00000000    0.00000000
     atom    9 type  1   force =     0.00086214    0.00067693    0.00067693
     atom   10 type  1   force =    -0.00011874    0.00001768    0.00001768
     atom   11 type  1   force =    -0.00009285    0.00001588    0.00001363
     atom   12 type  1   force =    -0.00010799   -0.00000196    0.00000902
     atom   13 type  1   force =    -0.00009285    0.00001363    0.00001588
     atom   14 type  1   force =    -0.00010799    0.00000902   -0.00000196
     atom   15 type  1   force =    -0.00009016    0.00000340    0.00000340
     atom   16 type  1   force =    -0.00011406    0.00000355    0.00000355
     atom   17 type  1   force =     0.00017232    0.00005111    0.00001165
     atom   18 type  1   force =     0.00015392   -0.00005431    0.00000964
     atom   19 type  1   force =     0.00017232   -0.00005111   -0.00001165
     atom   20 type  1   force =     0.00015392    0.00005431   -0.00000964
     atom   21 type  1   force =     0.00013151   -0.00000024    0.00000368
     atom   22 type  1   force =     0.00011300    0.00000165    0.00000718
     atom   23 type  1   force =     0.00013151    0.00000024   -0.00000368
     atom   24 type  1   force =     0.00011300   -0.00000165   -0.00000718
     atom   25 type  1   force =    -0.00009858   -0.00000284   -0.00000675
     atom   26 type  1   force =    -0.00010790    0.00001508   -0.00001214
     atom   27 type  1   force =    -0.00010106    0.00001755   -0.00001755
     atom   28 type  1   force =     0.00084353    0.00065959   -0.00065959
     atom   29 type  1   force =    -0.00010749    0.00000796   -0.00000796
     atom   30 type  1   force =    -0.00011254   -0.00000217    0.00000217
     atom   31 type  1   force =    -0.00009858    0.00000675    0.00000284
     atom   32 type  1   force =    -0.00010790    0.00001214   -0.00001508
     atom   33 type  1   force =     0.00017232    0.00001165    0.00005111
     atom   34 type  1   force =     0.00015392    0.00000964   -0.00005431
     atom   35 type  1   force =     0.00013151    0.00000368   -0.00000024
     atom   36 type  1   force =     0.00011300    0.00000718    0.00000165
     atom   37 type  1   force =     0.00017232   -0.00001165   -0.00005111
     atom   38 type  1   force =     0.00015392   -0.00000964    0.00005431
     atom   39 type  1   force =     0.00013151   -0.00000368    0.00000024
     atom   40 type  1   force =     0.00011300   -0.00000718   -0.00000165
     atom   41 type  1   force =    -0.00009858   -0.00000675   -0.00000284
     atom   42 type  1   force =    -0.00010790   -0.00001214    0.00001508
     atom   43 type  1   force =    -0.00010749   -0.00000796    0.00000796
     atom   44 type  1   force =    -0.00011254    0.00000217   -0.00000217
     atom   45 type  1   force =    -0.00010106   -0.00001755    0.00001755
     atom   46 type  1   force =     0.00084353   -0.00065959    0.00065959
     atom   47 type  1   force =    -0.00009858    0.00000284    0.00000675
     atom   48 type  1   force =    -0.00010790   -0.00001508    0.00001214
     atom   49 type  1   force =    -0.00001646   -0.00001480   -0.00001480
     atom   50 type  1   force =     0.00011653   -0.00000467   -0.00000467
     atom   51 type  1   force =    -0.00002292   -0.00001208    0.00001208
     atom   52 type  1   force =     0.00011380   -0.00000030    0.00000030
     atom   53 type  1   force =    -0.00002292    0.00001208   -0.00001208
     atom   54 type  1   force =     0.00011380    0.00000030   -0.00000030
     atom   55 type  1   force =    -0.00001646    0.00001480    0.00001480
     atom   56 type  1   force =     0.00011653    0.00000467    0.00000467
     atom   57 type  1   force =    -0.00009016   -0.00000340   -0.00000340
     atom   58 type  1   force =    -0.00011406   -0.00000355   -0.00000355
     atom   59 type  1   force =    -0.00009285   -0.00001363   -0.00001588
     atom   60 type  1   force =    -0.00010799   -0.00000902    0.00000196
     atom   61 type  1   force =    -0.00009285   -0.00001588   -0.00001363
     atom   62 type  1   force =    -0.00010799    0.00000196   -0.00000902
     atom   63 type  1   force =     0.00086214   -0.00067693   -0.00067693
     atom   64 type  1   force =    -0.00011874   -0.00001768   -0.00001768
     The non-local contrib.  to forces
     atom    1 type  1   force =    -0.00054447    0.00000000    0.00000000
     atom    2 type  1   force =    -0.00005358    0.00000000    0.00000000
     atom    3 type  1   force =    -0.00004803    0.00000000    0.00000000
     atom    4 type  1   force =    -0.00022516    0.00000000    0.00000000
     atom    5 type  1   force =    -0.00004803    0.00000000    0.00000000
     atom    6 type  1   force =    -0.00022516    0.00000000    0.00000000
     atom    7 type  1   force =     0.00001048    0.00000000    0.00000000
     atom    8 type  1   force =    -0.00002367    0.00000000    0.00000000
     atom    9 type  1   force =    -0.00012065   -0.00082528   -0.00082528
     atom   10 type  1   force =     0.00009733   -0.00005400   -0.00005400
     atom   11 type  1   force =     0.00018618   -0.00008334   -0.00010951
     atom   12 type  1   force =     0.00016374    0.00009564    0.00003166
     atom   13 type  1   force =     0.00018618   -0.00010951   -0.00008334
     atom   14 type  1   force =     0.00016374    0.00003166    0.00009564
     atom   15 type  1   force =     0.00004961    0.00028751    0.00028751
     atom   16 type  1   force =     0.00015843   -0.00009491   -0.00009491
     atom   17 type  1   force =    -0.00017619    0.00017930    0.00011539
     atom   18 type  1   force =    -0.00019279   -0.00018114    0.00011649
     atom   19 type  1   force =    -0.00017619   -0.00017930   -0.00011539
     atom   20 type  1   force =    -0.00019279    0.00018114   -0.00011649
     atom   21 type  1   force =    -0.00022639   -0.00020062   -0.00000354
     atom   22 type  1   force =    -0.00024165    0.00019872   -0.00000220
     atom   23 type  1   force =    -0.00022639    0.00020062    0.00000354
     atom   24 type  1   force =    -0.00024165   -0.00019872    0.00000220
     atom   25 type  1   force =     0.00017936    0.00009879   -0.00003390
     atom   26 type  1   force =     0.00017587   -0.00008330    0.00010721
     atom   27 type  1   force =     0.00010840   -0.00005363    0.00005363
     atom   28 type  1   force =    -0.00013393   -0.00081502    0.00081502
     atom   29 type  1   force =     0.00016752   -0.00008921    0.00008921
     atom   30 type  1   force =     0.00004401    0.00028965   -0.00028965
     atom   31 type  1   force =     0.00017936    0.00003390   -0.00009879
     atom   32 type  1   force =     0.00017587   -0.00010721    0.00008330
     atom   33 type  1   force =    -0.00017619    0.00011539    0.00017930
     atom   34 type  1   force =    -0.00019279    0.00011649   -0.00018114
     atom   35 type  1   force =    -0.00022639   -0.00000354   -0.00020062
     atom   36 type  1   force =    -0.00024165   -0.00000220    0.00019872
     atom   37 type  1   force =    -0.00017619   -0.00011539   -0.00017930
     atom   38 type  1   force =    -0.00019279   -0.00011649    0.00018114
     atom   39 type  1   force =    -0.00022639    0.00000354    0.00020062
     atom   40 type  1   force =    -0.00024165    0.00000220   -0.00019872
     atom   41 type  1   force =     0.00017936   -0.00003390    0.00009879
     atom   42 type  1   force =     0.00017587    0.00010721   -0.00008330
     atom   43 type  1   force =     0.00016752    0.00008921   -0.00008921
     atom   44 type  1   force =     0.00004401   -0.00028965    0.00028965
     atom   45 type  1   force =     0.00010840    0.00005363   -0.00005363
     atom   46 type  1   force =    -0.00013393    0.00081502   -0.00081502
     atom   47 type  1   force =     0.00017936   -0.00009879    0.00003390
     atom   48 type  1   force =     0.00017587    0.00008330   -0.00010721
     atom   49 type  1   force =     0.00037004   -0.00052701   -0.00052701
     atom   50 type  1   force =    -0.00012212   -0.00001131   -0.00001131
     atom   51 type  1   force =     0.00036788   -0.00051967    0.00051967
     atom   52 type  1   force =    -0.00012633   -0.00000899    0.00000899
     atom   53 type  1   force =     0.00036788    0.00051967   -0.00051967
     atom   54 type  1   force =    -0.00012633    0.00000899   -0.00000899
     atom   55 type  1   force =     0.00037004    0.00052701    0.00052701
     atom   56 type  1   force =    -0.00012212    0.00001131    0.00001131
     atom   57 type  1   force =     0.00004961   -0.00028751   -0.00028751
     atom   58 type  1   force =     0.00015843    0.00009491    0.00009491
     atom   59 type  1   force =     0.00018618    0.00010951    0.00008334
     atom   60 type  1   force =     0.00016374   -0.00003166   -0.00009564
     atom   61 type  1   force =     0.00018618    0.00008334    0.00010951
     atom   62 type  1   force =     0.00016374   -0.00009564   -0.00003166
     atom   63 type  1   force =    -0.00012065    0.00082528    0.00082528
     atom   64 type  1   force =     0.00009733    0.00005400    0.00005400
     The ionic contribution  to forces
     atom    1 type  1   force =    -0.20052667   -0.00000000   -0.00000000
     atom    2 type  1   force =     0.02604290   -0.00000000   -0.00000000
     atom    3 type  1   force =    -0.00824665    0.00000000   -0.00000000
     atom    4 type  1   force =     0.00647643    0.00000000   -0.00000000
     atom    5 type  1   force =    -0.00824665   -0.00000000   -0.00000000
     atom    6 type  1   force =     0.00647643   -0.00000000    0.00000000
     atom    7 type  1   force =    -0.00340357    0.00000000    0.00000000
     atom    8 type  1   force =     0.00318309    0.00000000    0.00000000
     atom    9 type  1   force =     0.00281101    0.07464604    0.07464604
     atom   10 type  1   force =     0.02210832   -0.00706055   -0.00706055
     atom   11 type  1   force =    -0.00632343   -0.00708490    0.00282664
     atom   12 type  1   force =     0.00637466    0.00340904   -0.00152670
     atom   13 type  1   force =    -0.00632343    0.00282664   -0.00708490
     atom   14 type  1   force =     0.00637466   -0.00152670    0.00340904
     atom   15 type  1   force =    -0.00319222   -0.00152864   -0.00152864
     atom   16 type  1   force =     0.00319049    0.00110445    0.00110445
     atom   17 type  1   force =     0.01252290    0.02402705   -0.00000000
     atom   18 type  1   force =     0.01258174   -0.02387836   -0.00000000
     atom   19 type  1   force =     0.01252290   -0.02402705   -0.00000000
     atom   20 type  1   force =     0.01258174    0.02387836   -0.00000000
     atom   21 type  1   force =     0.00038586    0.00197621   -0.00000000
     atom   22 type  1   force =     0.00041492   -0.00197407   -0.00000000
     atom   23 type  1   force =     0.00038586   -0.00197621   -0.00000000
     atom   24 type  1   force =     0.00041492    0.00197407   -0.00000000
     atom   25 type  1   force =     0.00635554    0.00343553    0.00153799
     atom   26 type  1   force =    -0.00626030   -0.00710972   -0.00283736
     atom   27 type  1   force =     0.02215795   -0.00713441    0.00713441
     atom   28 type  1   force =     0.00355102    0.07427606   -0.07427606
     atom   29 type  1   force =     0.00317568    0.00111185   -0.00111185
     atom   30 type  1   force =    -0.00316965   -0.00153602    0.00153602
     atom   31 type  1   force =     0.00635554   -0.00153799   -0.00343553
     atom   32 type  1   force =    -0.00626030    0.00283736    0.00710972
     atom   33 type  1   force =     0.01252290   -0.00000000    0.02402705
     atom   34 type  1   force =     0.01258174   -0.00000000   -0.02387836
     atom   35 type  1   force =     0.00038586    0.00000000    0.00197621
     atom   36 type  1   force =     0.00041492    0.00000000   -0.00197407
     atom   37 type  1   force =     0.01252290   -0.00000000   -0.02402705
     atom   38 type  1   force =     0.01258174   -0.00000000    0.02387836
     atom   39 type  1   force =     0.00038586    0.00000000   -0.00197621
     atom   40 type  1   force =     0.00041492   -0.00000000    0.00197407
     atom   41 type  1   force =     0.00635554    0.00153799    0.00343553
     atom   42 type  1   force =    -0.00626030   -0.00283736   -0.00710972
     atom   43 type  1   force =     0.00317568   -0.00111185    0.00111185
     atom   44 type  1   force =    -0.00316965    0.00153602   -0.00153602
     atom   45 type  1   force =     0.02215795    0.00713441   -0.00713441
     atom   46 type  1   force =     0.00355102   -0.07427606    0.07427606
     atom   47 type  1   force =     0.00635554   -0.00343553   -0.00153799
     atom   48 type  1   force =    -0.00626030    0.00710972    0.00283736
     atom   49 type  1   force =    -0.01555551   -0.00004493   -0.00004493
     atom   50 type  1   force =     0.00874850    0.00001346    0.00001346
     atom   51 type  1   force =    -0.01555551    0.00004493   -0.00004493
     atom   52 type  1   force =     0.00874850   -0.00001346    0.00001346
     atom   53 type  1   force =    -0.01555551   -0.00004493    0.00004493
     atom   54 type  1   force =     0.00874850    0.00001346   -0.00001346
     atom   55 type  1   force =    -0.01555551    0.00004493    0.00004493
     atom   56 type  1   force =     0.00874850   -0.00001346   -0.00001346
     atom   57 type  1   force =    -0.00319222    0.00152864    0.00152864
     atom   58 type  1   force =     0.00319049   -0.00110445   -0.00110445
     atom   59 type  1   force =    -0.00632343   -0.00282664    0.00708490
     atom   60 type  1   force =     0.00637466    0.00152670   -0.00340904
     atom   61 type  1   force =    -0.00632343    0.00708490   -0.00282664
     atom   62 type  1   force =     0.00637466   -0.00340904    0.00152670
     atom   63 type  1   force =     0.00281101   -0.07464604   -0.07464604
     atom   64 type  1   force =     0.02210832    0.00706055    0.00706055
     The local contribution  to forces
     atom    1 type  1   force =     0.19713644    0.00001865    0.00000201
     atom    2 type  1   force =    -0.02592132    0.00001373   -0.00001136
     atom    3 type  1   force =     0.00838346   -0.00000537    0.00001048
     atom    4 type  1   force =    -0.00607183    0.00000768    0.00001193
     atom    5 type  1   force =     0.00837182    0.00002735    0.00000372
     atom    6 type  1   force =    -0.00605204    0.00001347    0.00002859
     atom    7 type  1   force =     0.00350960   -0.00000415    0.00000358
     atom    8 type  1   force =    -0.00301882   -0.00000578   -0.00000916
     atom    9 type  1   force =    -0.00176965   -0.07314810   -0.07317576
     atom   10 type  1   force =    -0.02235207    0.00715788    0.00714246
     atom   11 type  1   force =     0.00600244    0.00718487   -0.00270782
     atom   12 type  1   force =    -0.00666771   -0.00353323    0.00147450
     atom   13 type  1   force =     0.00600482   -0.00268150    0.00721266
     atom   14 type  1   force =    -0.00666187    0.00148673   -0.00355050
     atom   15 type  1   force =     0.00303881    0.00122107    0.00121573
     atom   16 type  1   force =    -0.00351321   -0.00098573   -0.00100360
     atom   17 type  1   force =    -0.01218018   -0.02414488   -0.00010575
     atom   18 type  1   force =    -0.01220367    0.02398367   -0.00009813
     atom   19 type  1   force =    -0.01218043    0.02412779    0.00009835
     atom   20 type  1   force =    -0.01221899   -0.02400473    0.00010450
     atom   21 type  1   force =    -0.00004514   -0.00179662    0.00003136
     atom   22 type  1   force =    -0.00005108    0.00175623   -0.00000265
     atom   23 type  1   force =    -0.00004280    0.00179082    0.00001014
     atom   24 type  1   force =    -0.00005918   -0.00178315   -0.00000849
     atom   25 type  1   force =    -0.00665171   -0.00356853   -0.00151657
     atom   26 type  1   force =     0.00599166    0.00723052    0.00269080
     atom   27 type  1   force =    -0.02241075    0.00721647   -0.00722941
     atom   28 type  1   force =    -0.00250752   -0.07282038    0.07281636
     atom   29 type  1   force =    -0.00347321   -0.00102497    0.00099772
     atom   30 type  1   force =     0.00306686    0.00122263   -0.00125956
     atom   31 type  1   force =    -0.00664287    0.00150406    0.00356397
     atom   32 type  1   force =     0.00596874   -0.00267236   -0.00723992
     atom   33 type  1   force =    -0.01219090   -0.00009332   -0.02415098
     atom   34 type  1   force =    -0.01220983   -0.00009238    0.02400434
     atom   35 type  1   force =    -0.00003879    0.00000135   -0.00181086
     atom   36 type  1   force =    -0.00005644    0.00000183    0.00178053
     atom   37 type  1   force =    -0.01216323    0.00012352    0.02413662
     atom   38 type  1   force =    -0.01222900    0.00012681   -0.02400877
     atom   39 type  1   force =    -0.00004496   -0.00000926    0.00178977
     atom   40 type  1   force =    -0.00005029    0.00000804   -0.00177863
     atom   41 type  1   force =    -0.00664456   -0.00149245   -0.00354658
     atom   42 type  1   force =     0.00597097    0.00270182    0.00724998
     atom   43 type  1   force =    -0.00346853    0.00100296   -0.00099164
     atom   44 type  1   force =     0.00304795   -0.00124840    0.00124525
     atom   45 type  1   force =    -0.02242131   -0.00720590    0.00721429
     atom   46 type  1   force =    -0.00249654    0.07281996   -0.07282415
     atom   47 type  1   force =    -0.00664689    0.00356788    0.00151098
     atom   48 type  1   force =     0.00597875   -0.00723365   -0.00267375
     atom   49 type  1   force =     0.01518371    0.00056064    0.00055700
     atom   50 type  1   force =    -0.00849561    0.00000908   -0.00000611
     atom   51 type  1   force =     0.01519767    0.00045633   -0.00047450
     atom   52 type  1   force =    -0.00847772    0.00000444   -0.00002735
     atom   53 type  1   force =     0.01521557   -0.00047708    0.00046307
     atom   54 type  1   force =    -0.00850474   -0.00004951    0.00000970
     atom   55 type  1   force =     0.01520639   -0.00057225   -0.00055985
     atom   56 type  1   force =    -0.00849961    0.00000372    0.00000220
     atom   57 type  1   force =     0.00302117   -0.00122751   -0.00122107
     atom   58 type  1   force =    -0.00350287    0.00098462    0.00100047
     atom   59 type  1   force =     0.00600565    0.00269722   -0.00720088
     atom   60 type  1   force =    -0.00665464   -0.00148095    0.00354645
     atom   61 type  1   force =     0.00600663   -0.00722180    0.00270973
     atom   62 type  1   force =    -0.00667502    0.00353099   -0.00146737
     atom   63 type  1   force =    -0.00177098    0.07316920    0.07316750
     atom   64 type  1   force =    -0.02235870   -0.00715330   -0.00714556
     The core correction contribution to forces
     atom    1 type  1   force =     0.00014134    0.00000071    0.00000090
     atom    2 type  1   force =    -0.00000695    0.00000082    0.00000106
     atom    3 type  1   force =    -0.00000583   -0.00000050    0.00000085
     atom    4 type  1   force =    -0.00002399   -0.00000023    0.00000093
     atom    5 type  1   force =    -0.00000582    0.00000092   -0.00000054
     atom    6 type  1   force =    -0.00002389    0.00000077   -0.00000024
     atom    7 type  1   force =    -0.00001230   -0.00000026   -0.00000019
     atom    8 type  1   force =    -0.00001175   -0.00000053   -0.00000108
     atom    9 type  1   force =    -0.00003237    0.00001900    0.00001836
     atom   10 type  1   force =     0.00001640   -0.00000259   -0.00000358
     atom   11 type  1   force =     0.00001449   -0.00000467   -0.00000382
     atom   12 type  1   force =     0.00001613    0.00000205    0.00000004
     atom   13 type  1   force =     0.00001466   -0.00000259   -0.00000364
     atom   14 type  1   force =     0.00001643    0.00000095    0.00000179
     atom   15 type  1   force =     0.00001195    0.00000337    0.00000386
     atom   16 type  1   force =     0.00001702   -0.00000329   -0.00000311
     atom   17 type  1   force =    -0.00002128   -0.00000104    0.00000192
     atom   18 type  1   force =    -0.00002072    0.00000133    0.00000173
     atom   19 type  1   force =    -0.00002171    0.00000041   -0.00000036
     atom   20 type  1   force =    -0.00002120   -0.00000191   -0.00000048
     atom   21 type  1   force =    -0.00001921   -0.00000370   -0.00000018
     atom   22 type  1   force =    -0.00001897    0.00000381   -0.00000113
     atom   23 type  1   force =    -0.00001950    0.00000380   -0.00000008
     atom   24 type  1   force =    -0.00001902   -0.00000473   -0.00000065
     atom   25 type  1   force =     0.00001667    0.00000230   -0.00000019
     atom   26 type  1   force =     0.00001562   -0.00000353    0.00000337
     atom   27 type  1   force =     0.00001658   -0.00000354    0.00000382
     atom   28 type  1   force =    -0.00003158    0.00001877   -0.00001858
     atom   29 type  1   force =     0.00001772   -0.00000346    0.00000247
     atom   30 type  1   force =     0.00001407    0.00000479   -0.00000509
     atom   31 type  1   force =     0.00001659    0.00000005   -0.00000312
     atom   32 type  1   force =     0.00001520   -0.00000329    0.00000339
     atom   33 type  1   force =    -0.00002148    0.00000161   -0.00000201
     atom   34 type  1   force =    -0.00002130    0.00000145    0.00000087
     atom   35 type  1   force =    -0.00001885   -0.00000067   -0.00000498
     atom   36 type  1   force =    -0.00001940   -0.00000041    0.00000363
     atom   37 type  1   force =    -0.00002102   -0.00000024    0.00000126
     atom   38 type  1   force =    -0.00002133   -0.00000015   -0.00000106
     atom   39 type  1   force =    -0.00001938   -0.00000038    0.00000435
     atom   40 type  1   force =    -0.00001898    0.00000044   -0.00000353
     atom   41 type  1   force =     0.00001653    0.00000058    0.00000215
     atom   42 type  1   force =     0.00001531    0.00000413   -0.00000392
     atom   43 type  1   force =     0.00001798    0.00000241   -0.00000333
     atom   44 type  1   force =     0.00001333   -0.00000522    0.00000434
     atom   45 type  1   force =     0.00001615    0.00000466   -0.00000256
     atom   46 type  1   force =    -0.00003151   -0.00001842    0.00001959
     atom   47 type  1   force =     0.00001671   -0.00000307    0.00000108
     atom   48 type  1   force =     0.00001532    0.00000294   -0.00000272
     atom   49 type  1   force =     0.00000585   -0.00000633   -0.00000732
     atom   50 type  1   force =    -0.00001604    0.00000097   -0.00000052
     atom   51 type  1   force =     0.00000593   -0.00000750    0.00000610
     atom   52 type  1   force =    -0.00001513   -0.00000093   -0.00000034
     atom   53 type  1   force =     0.00000644    0.00000745   -0.00000640
     atom   54 type  1   force =    -0.00001608    0.00000017    0.00000002
     atom   55 type  1   force =     0.00000627    0.00000593    0.00000719
     atom   56 type  1   force =    -0.00001563   -0.00000112    0.00000043
     atom   57 type  1   force =     0.00001199   -0.00000421   -0.00000497
     atom   58 type  1   force =     0.00001676    0.00000278    0.00000207
     atom   59 type  1   force =     0.00001465    0.00000356    0.00000262
     atom   60 type  1   force =     0.00001659   -0.00000020   -0.00000341
     atom   61 type  1   force =     0.00001428    0.00000341    0.00000441
     atom   62 type  1   force =     0.00001611   -0.00000236    0.00000139
     atom   63 type  1   force =    -0.00003320   -0.00001836   -0.00001727
     atom   64 type  1   force =     0.00001666    0.00000284    0.00000463
     The Hubbard contrib.    to forces
     atom    1 type  1   force =     0.00000000    0.00000000    0.00000000
     atom    2 type  1   force =     0.00000000    0.00000000    0.00000000
     atom    3 type  1   force =     0.00000000    0.00000000    0.00000000
     atom    4 type  1   force =     0.00000000    0.00000000    0.00000000
     atom    5 type  1   force =     0.00000000    0.00000000    0.00000000
     atom    6 type  1   force =     0.00000000    0.00000000    0.00000000
     atom    7 type  1   force =     0.00000000    0.00000000    0.00000000
     atom    8 type  1   force =     0.00000000    0.00000000    0.00000000
     atom    9 type  1   force =     0.00000000    0.00000000    0.00000000
     atom   10 type  1   force =     0.00000000    0.00000000    0.00000000
     atom   11 type  1   force =     0.00000000    0.00000000    0.00000000
     atom   12 type  1   force =     0.00000000    0.00000000    0.00000000
     atom   13 type  1   force =     0.00000000    0.00000000    0.00000000
     atom   14 type  1   force =     0.00000000    0.00000000    0.00000000
     atom   15 type  1   force =     0.00000000    0.00000000    0.00000000
     atom   16 type  1   force =     0.00000000    0.00000000    0.00000000
     atom   17 type  1   force =     0.00000000    0.00000000    0.00000000
     atom   18 type  1   force =     0.00000000    0.00000000    0.00000000
     atom   19 type  1   force =     0.00000000    0.00000000    0.00000000
     atom   20 type  1   force =     0.00000000    0.00000000    0.00000000
     atom   21 type  1   force =     0.00000000    0.00000000    0.00000000
     atom   22 type  1   force =     0.00000000    0.00000000    0.00000000
     atom   23 type  1   force =     0.00000000    0.00000000    0.00000000
     atom   24 type  1   force =     0.00000000    0.00000000    0.00000000
     atom   25 type  1   force =     0.00000000    0.00000000    0.00000000
     atom   26 type  1   force =     0.00000000    0.00000000    0.00000000
     atom   27 type  1   force =     0.00000000    0.00000000    0.00000000
     atom   28 type  1   force =     0.00000000    0.00000000    0.00000000
     atom   29 type  1   force =     0.00000000    0.00000000    0.00000000
     atom   30 type  1   force =     0.00000000    0.00000000    0.00000000
     atom   31 type  1   force =     0.00000000    0.00000000    0.00000000
     atom   32 type  1   force =     0.00000000    0.00000000    0.00000000
     atom   33 type  1   force =     0.00000000    0.00000000    0.00000000
     atom   34 type  1   force =     0.00000000    0.00000000    0.00000000
     atom   35 type  1   force =     0.00000000    0.00000000    0.00000000
     atom   36 type  1   force =     0.00000000    0.00000000    0.00000000
     atom   37 type  1   force =     0.00000000    0.00000000    0.00000000
     atom   38 type  1   force =     0.00000000    0.00000000    0.00000000
     atom   39 type  1   force =     0.00000000    0.00000000    0.00000000
     atom   40 type  1   force =     0.00000000    0.00000000    0.00000000
     atom   41 type  1   force =     0.00000000    0.00000000    0.00000000
     atom   42 type  1   force =     0.00000000    0.00000000    0.00000000
     atom   43 type  1   force =     0.00000000    0.00000000    0.00000000
     atom   44 type  1   force =     0.00000000    0.00000000    0.00000000
     atom   45 type  1   force =     0.00000000    0.00000000    0.00000000
     atom   46 type  1   force =     0.00000000    0.00000000    0.00000000
     atom   47 type  1   force =     0.00000000    0.00000000    0.00000000
     atom   48 type  1   force =     0.00000000    0.00000000    0.00000000
     atom   49 type  1   force =     0.00000000    0.00000000    0.00000000
     atom   50 type  1   force =     0.00000000    0.00000000    0.00000000
     atom   51 type  1   force =     0.00000000    0.00000000    0.00000000
     atom   52 type  1   force =     0.00000000    0.00000000    0.00000000
     atom   53 type  1   force =     0.00000000    0.00000000    0.00000000
     atom   54 type  1   force =     0.00000000    0.00000000    0.00000000
     atom   55 type  1   force =     0.00000000    0.00000000    0.00000000
     atom   56 type  1   force =     0.00000000    0.00000000    0.00000000
     atom   57 type  1   force =     0.00000000    0.00000000    0.00000000
     atom   58 type  1   force =     0.00000000    0.00000000    0.00000000
     atom   59 type  1   force =     0.00000000    0.00000000    0.00000000
     atom   60 type  1   force =     0.00000000    0.00000000    0.00000000
     atom   61 type  1   force =     0.00000000    0.00000000    0.00000000
     atom   62 type  1   force =     0.00000000    0.00000000    0.00000000
     atom   63 type  1   force =     0.00000000    0.00000000    0.00000000
     atom   64 type  1   force =     0.00000000    0.00000000    0.00000000
     The SCF correction term to forces
     atom    1 type  1   force =    -0.00000129   -0.00002190   -0.00000459
     atom    2 type  1   force =    -0.00000602   -0.00001913    0.00000692
     atom    3 type  1   force =    -0.00004824    0.00000744   -0.00001392
     atom    4 type  1   force =     0.00000492   -0.00000860   -0.00001638
     atom    5 type  1   force =    -0.00003524   -0.00003358   -0.00000128
     atom    6 type  1   force =    -0.00001638   -0.00001673   -0.00002997
     atom    7 type  1   force =    -0.00001056    0.00000377   -0.00000416
     atom    8 type  1   force =    -0.00002961    0.00000939    0.00001533
     atom    9 type  1   force =    -0.00002780   -0.00001762    0.00001336
     atom   10 type  1   force =     0.00001259   -0.00002405   -0.00000599
     atom   11 type  1   force =     0.00002809    0.00000856    0.00001025
     atom   12 type  1   force =     0.00000642    0.00002440    0.00003021
     atom   13 type  1   force =     0.00002466   -0.00002317   -0.00002639
     atom   14 type  1   force =    -0.00000180    0.00001288    0.00004532
     atom   15 type  1   force =     0.00000185    0.00002209    0.00002592
     atom   16 type  1   force =     0.00003313   -0.00001748    0.00000126
     atom   17 type  1   force =     0.00002414   -0.00000840   -0.00000222
     atom   18 type  1   force =    -0.00001291    0.00002153   -0.00001338
     atom   19 type  1   force =     0.00002965    0.00003121    0.00000431
     atom   20 type  1   force =     0.00000661    0.00000338    0.00000212
     atom   21 type  1   force =     0.00003770    0.00002246   -0.00002673
     atom   22 type  1   force =     0.00001085    0.00001992    0.00001633
     atom   23 type  1   force =     0.00003527   -0.00001838   -0.00001843
     atom   24 type  1   force =     0.00001835    0.00001560    0.00000491
     atom   25 type  1   force =     0.00000117    0.00003118    0.00000690
     atom   26 type  1   force =    -0.00003254   -0.00001865    0.00002335
     atom   27 type  1   force =     0.00002600   -0.00000916    0.00002025
     atom   28 type  1   force =    -0.00003308    0.00000028    0.00000404
     atom   29 type  1   force =     0.00000594    0.00001723    0.00001652
     atom   30 type  1   force =    -0.00006985    0.00001848    0.00002133
     atom   31 type  1   force =    -0.00000556    0.00000825   -0.00002157
     atom   32 type  1   force =    -0.00000657   -0.00004408    0.00002775
     atom   33 type  1   force =     0.00004083   -0.00001484    0.00000188
     atom   34 type  1   force =    -0.00000304   -0.00001738    0.00000065
     atom   35 type  1   force =     0.00002767    0.00000952    0.00004358
     atom   36 type  1   force =     0.00001655    0.00000791   -0.00000645
     atom   37 type  1   force =     0.00000915   -0.00002325    0.00001823
     atom   38 type  1   force =     0.00001638   -0.00002350    0.00000474
     atom   39 type  1   force =     0.00003730    0.00000373   -0.00001718
     atom   40 type  1   force =     0.00000765   -0.00001989    0.00000412
     atom   41 type  1   force =    -0.00000526   -0.00002167    0.00000771
     atom   42 type  1   force =    -0.00000809    0.00000842   -0.00003739
     atom   43 type  1   force =    -0.00000072    0.00001110   -0.00001940
     atom   44 type  1   force =    -0.00004560    0.00001050   -0.00000515
     atom   45 type  1   force =     0.00003905   -0.00001027   -0.00001000
     atom   46 type  1   force =    -0.00004632   -0.00000145    0.00000202
     atom   47 type  1   force =    -0.00000362   -0.00002721   -0.00000446
     atom   48 type  1   force =    -0.00001718    0.00002409   -0.00004396
     atom   49 type  1   force =    -0.00001801    0.00000245    0.00000986
     atom   50 type  1   force =     0.00000287   -0.00001923    0.00000256
     atom   51 type  1   force =    -0.00003706    0.00001494    0.00000715
     atom   52 type  1   force =    -0.00001858    0.00002203    0.00000800
     atom   53 type  1   force =    -0.00005855    0.00000597    0.00000529
     atom   54 type  1   force =     0.00001607    0.00002925    0.00001358
     atom   55 type  1   force =    -0.00004564    0.00001255   -0.00000582
     atom   56 type  1   force =     0.00000489    0.00000678    0.00000203
     atom   57 type  1   force =     0.00001969   -0.00001170   -0.00001665
     atom   58 type  1   force =     0.00002376    0.00001918    0.00000286
     atom   59 type  1   force =     0.00002320    0.00000331    0.00001563
     atom   60 type  1   force =    -0.00000953   -0.00002185   -0.00003343
     atom   61 type  1   force =     0.00002511    0.00003592   -0.00001287
     atom   62 type  1   force =     0.00001443   -0.00002187   -0.00004198
     atom   63 type  1   force =    -0.00002189   -0.00000748   -0.00000901
     atom   64 type  1   force =     0.00001689    0.00002198    0.00000464

     Total force =     0.004657     Total SCF correction =     0.000294

     Writing all to output data dir ./Ge_out/Ge_scf.save/

     init_run     :      1.83s CPU      1.95s WALL (       1 calls)
     electrons    :     60.00s CPU     62.67s WALL (       1 calls)
     forces       :      0.91s CPU      0.95s WALL (       1 calls)

     Called by init_run:
     wfcinit      :      1.17s CPU      1.26s WALL (       1 calls)
     potinit      :      0.09s CPU      0.10s WALL (       1 calls)
     hinit0       :      0.49s CPU      0.51s WALL (       1 calls)

     Called by electrons:
     c_bands      :     56.10s CPU     58.39s WALL (      13 calls)
     sum_band     :      3.35s CPU      3.62s WALL (      13 calls)
     v_of_rho     :      0.46s CPU      0.50s WALL (      13 calls)
     mix_rho      :      0.08s CPU      0.09s WALL (      13 calls)

     Called by c_bands:
     init_us_2    :      0.46s CPU      0.48s WALL (      27 calls)
     init_us_2:cp :      0.46s CPU      0.48s WALL (      27 calls)
     regterg      :     54.76s CPU     57.01s WALL (      14 calls)

     Called by *egterg:
     rdiaghg      :     12.10s CPU     12.34s WALL (      80 calls)
     h_psi        :     26.39s CPU     27.89s WALL (      82 calls)
     g_psi        :      0.14s CPU      0.15s WALL (      67 calls)

     Called by h_psi:
     h_psi:calbec :      5.46s CPU      5.60s WALL (      82 calls)
     vloc_psi     :     15.70s CPU     17.01s WALL (      82 calls)
     add_vuspsi   :      4.89s CPU      4.96s WALL (      82 calls)

     General routines
     calbec       :      6.03s CPU      6.19s WALL (      86 calls)
     fft          :      0.58s CPU      0.64s WALL (     113 calls)
     ffts         :      0.02s CPU      0.02s WALL (      13 calls)
     fftw         :     16.57s CPU     17.94s WALL (   21581 calls)

     Parallel routines

     PWSCF        :   1m 2.96s CPU   1m 7.00s WALL


   This run was terminated on:  12:58:12  20May2026            

=------------------------------------------------------------------------------=
   JOB DONE.
=------------------------------------------------------------------------------=
