&CONTROL
   calculation      = 'relax'
   restart_mode     = 'from_scratch'
   tstress          = .false.
   tprnfor          = .true.
   outdir           = './out'
   prefix           = 'ge'
   pseudo_dir       = './'
   nstep            = 100
/
&SYSTEM
   ibrav            = 0
   ecutwfc          = 60.0
   occupations      = 'smearing'
   degauss          = 0.01
   smearing         = 'gaussian'
   ntyp             = 1
   nat              = 128
/
&ELECTRONS
   mixing_beta      = 0.4
/
&IONS
   ion_dynamics     = 'bfgs'
/
&CELL
/
&FCP
/
&RISM
/
ATOMIC_SPECIES
Ge 72.63 Ge.upf

K_POINTS gamma

CELL_PARAMETERS angstrom
16.32002450978552 0.00000000000000 0.00000000000000
8.16001225489276 14.13355581585894 0.00000000000000
0.00000000000000 0.00000000000000 22.49241644959053

ATOMIC_POSITIONS angstrom
Ge 0.0043241967 -0.0183286292 4.9924514821  
Ge 4.0961100077 7.0574681754 7.5112278042  
Ge 2.0590783997 3.5165571254 5.0190858198  
Ge 2.0277695924 3.5506833419 7.5073200491  
Ge 4.0865504656 0.0129873564 4.9985736335  
Ge 8.1477373361 7.0653595754 7.4961106666  
Ge 6.1331825526 3.5137087587 4.9974375823  
Ge 6.1228665591 3.5180976204 7.4993953991  
Ge 8.1645323132 4.7181830992 8.3423679505  
Ge 8.1609772846 4.6965384416 10.8356829222  
Ge 6.1185439296 1.1951157236 8.3288963072  
Ge 6.1230203345 1.1933272457 10.8138428567  
Ge 4.0854213161 4.7021088984 8.3137526857  
Ge 4.0918523181 4.7247169543 10.8443138138  
Ge 2.0396140964 1.1878794476 8.3493649629  
Ge 2.0508722765 1.1678716822 10.8313534168  
Ge 4.0741803967 2.3654959112 11.6788427430  
Ge 4.0964418782 2.3681613867 14.1446272305  
Ge 6.1207605506 5.8810033226 11.6501578067  
Ge 6.1399877056 5.8854107942 14.1670238294  
Ge 8.1505427210 2.3648564236 11.6686946456  
Ge 8.1587034251 2.3533304629 14.1758617501  
Ge 10.1853233925 5.8944572456 11.6629438010  
Ge 10.2083734089 5.8727012070 14.1681386238  
Ge 4.0737719880 7.0503129402 14.9768970572  
Ge 4.0742982275 7.0499413871 17.5010218009  
Ge 2.0229015003 3.5328822055 14.9919083395  
Ge 2.0504527058 3.5255114016 17.5025093506  
Ge 8.1510242041 7.0788531243 14.9751911861  
Ge 8.1697094463 7.0607852400 17.5119329543  
Ge 6.1072552170 3.5526184617 14.9844034491  
Ge 6.1216464176 3.5141272231 17.5011060457  
Ge 4.0919453592 7.0804540501 4.9833910383  
Ge -0.0124941833 0.0148033608 7.4886167894  
Ge 6.1384078726 10.5986084432 5.0040503720  
Ge 6.1053786662 10.5869168995 7.5171726972  
Ge 8.1583704045 7.0492483175 5.0075412627  
Ge 4.0737371178 -0.0122223146 7.5079248282  
Ge 10.2006649108 10.6013278905 4.9806605541  
Ge 10.2119096209 10.6058250586 7.4937352306  
Ge 12.2385867791 11.7636356432 8.3334323335  
Ge 12.2240018223 11.7883625985 10.8104635193  
Ge 10.2066639064 8.2417283507 8.3441695993  
Ge 10.2003068206 8.2326521536 10.8362843348  
Ge 8.1728081783 11.7928614594 8.3481531044  
Ge 8.1766207734 11.7881193342 10.8252211585  
Ge 6.1236083642 8.2522207893 8.3366508870  
Ge 6.1252016479 8.2430413760 10.8253461300  
Ge 8.1750144336 9.4207856151 11.6793631384  
Ge 8.1751014333 9.4121962791 14.1626366171  
Ge 10.2163252488 12.9752314614 11.6761606419  
Ge 10.1832955927 12.9457803532 14.1708451205  
Ge 12.2322675756 9.4311298196 11.6777355885  
Ge 12.2234270539 9.4158860897 14.1704307575  
Ge 14.2831159400 12.9442219866 11.6435342808  
Ge 14.2925686265 12.9473367872 14.1499989461  
Ge -0.0074060382 0.0174484293 14.9808055593  
Ge -0.0132786403 -0.0146508605 17.4894629988  
Ge 6.1129643812 10.6194798253 14.9884671216  
Ge 6.1372300331 10.5891406003 17.4876252093  
Ge 4.0603579625 0.0027209816 14.9896283352  
Ge 4.0838499130 0.0130883871 17.4956037154  
Ge 10.2035045493 10.5967449779 14.9864245149  
Ge 10.2160463337 10.5989372821 17.4733607271  
Ge 8.1474670415 0.0108324435 5.0144047717  
Ge 12.2201713927 7.0480694061 7.4899032063  
Ge 10.2007261588 3.5297715787 4.9887085083  
Ge 10.1840905260 3.5480787824 7.4840367396  
Ge 12.2511029897 -0.0027377425 5.0054127453  
Ge 16.3300804393 7.0820261045 7.4848671109  
Ge 14.2649902637 3.5347933815 4.9953801795  
Ge 14.2944398003 3.5348211997 7.5182589032  
Ge 16.3002076043 4.7136029830 8.3465636233  
Ge 16.3054557823 4.6942985229 10.8426117451  
Ge 14.2756603582 1.1754192308 8.3416707915  
Ge 14.2744357235 1.1858616696 10.8460349330  
Ge 12.2230145901 4.7043883725 8.3238949232  
Ge 12.2526178141 4.7249845184 10.8392704715  
Ge 10.1960582657 1.1693854881 8.3314758609  
Ge 10.2125973552 1.1679862826 10.8324246761  
Ge 12.2413692169 2.3577151738 11.6663600262  
Ge 12.2508470309 2.3548137095 14.1412372896  
Ge 14.2633269195 5.8820121100 11.6698440879  
Ge 14.2946263433 5.8730086265 14.1772983823  
Ge 16.3283109226 2.3467631850 11.6645828771  
Ge 16.3095482821 2.3408196518 14.1749277632  
Ge 18.3633582901 5.9022842719 11.6525006110  
Ge 18.3614367239 5.8812568727 14.1664136488  
Ge 12.2548943850 7.0514595483 14.9843194162  
Ge 12.2264677543 7.0800802899 17.5006265148  
Ge 10.1893480820 3.5253473892 14.9978754416  
Ge 10.2018635431 3.5364712569 17.5001358455  
Ge 16.3328611507 7.0792919509 14.9855251988  
Ge 16.3312466810 7.0843858671 17.5092995492  
Ge 14.2754487968 3.5283336033 15.0030028891  
Ge 14.2935856368 3.5278027389 17.4836027727  
Ge 12.2542885996 7.0492022180 4.9894447043  
Ge 8.1583277650 0.0176889498 7.5031475256  
Ge 14.2765241888 10.6161391653 5.0058153754  
Ge 14.2670258293 10.6001821321 7.4815734546  
Ge 16.3189299932 7.0724183260 5.0177437846  
Ge 12.2453842996 -0.0106457576 7.5037931837  
Ge 18.3736796577 10.6160156569 5.0196401179  
Ge 18.3544692687 10.5975137870 7.4802222933  
Ge 20.4132358949 11.7791013866 8.3320057978  
Ge 20.4062567090 11.7934987893 10.8447560074  
Ge 18.3639077311 8.2311781426 8.3305216725  
Ge 18.3754146957 8.2389991201 10.8287378827  
Ge 16.3182382069 11.7614084879 8.3147307350  
Ge 16.3364026784 11.7920097067 10.8226002653  
Ge 14.2643190773 8.2613657239 8.3370563525  
Ge 14.2985926872 8.2310583445 10.8428920469  
Ge 16.3026086607 9.4417768670 11.6663669050  
Ge 16.3218314471 9.4316419855 14.1423924527  
Ge 18.3478277141 12.9513472511 11.6673691049  
Ge 18.3785978807 12.9535674841 14.1648697662  
Ge 20.3838427156 9.4335226984 11.6467487103  
Ge 20.4054586813 9.4029042804 14.1740840841  
Ge 22.4241672004 12.9636962651 11.6567573080  
Ge 22.4371083638 12.9545684577 14.1614156193  
Ge 8.1690487276 -0.0117079951 15.0005637863  
Ge 8.1758194154 0.0171815555 17.4854795262  
Ge 14.2823273654 10.5890687205 15.0051261322  
Ge 14.2825801099 10.6157708358 17.4908919947  
Ge 12.2275898901 0.0099972797 14.9893753258  
Ge 12.2285289016 0.0027466528 17.4957964822  
Ge 18.3467510547 10.5980521318 14.9775814107  
Ge 18.3688310802 10.5833299343 17.4787202875  

